57
pr1.tempo_ts3 reactant R frame
I  0.689470  -0.463570  -0.785870
C  1.835220  0.688560  0.624860
C  1.957390  0.170060  1.900500
C  2.487980  1.822780  0.177010
C  2.747730  0.881350  2.801510
H  1.487540  -0.767080  2.167990
C  3.285910  2.502480  1.093570
H  2.382700  2.168530  -0.841470
C  3.403730  2.041140  2.401750
H  2.860010  0.506230  3.812640
H  3.807210  3.399010  0.776930
H  4.022340  2.582240  3.110140
H  -0.825610  -1.413920  0.794710
O  -1.242560  0.305260  -0.569550
N  -2.065230  -0.386810  0.307540
C  -2.515150  0.563300  1.378950
C  -3.089560  -1.139720  -0.488730
C  -3.441420  -0.225730  2.313540
C  -3.178760  1.829770  0.823850
C  -1.261710  0.994180  2.141130
C  -3.992670  -1.867240  0.517370
C  -2.342420  -2.179260  -1.333350
C  -3.898550  -0.248990  -1.443840
C  -4.573850  -0.935960  1.577780
H  -2.839240  -0.973750  2.846740
H  -3.832630  0.467160  3.066070
H  -2.539400  2.271560  0.055070
H  -4.175970  1.656500  0.419140
H  -3.275000  2.555230  1.636980
H  -0.702690  0.123320  2.496700
H  -0.620460  1.612900  1.506290
H  -1.555090  1.585460  3.013080
H  -4.786470  -2.372690  -0.043560
H  -3.400790  -2.648100  1.013430
H  -1.777030  -1.698120  -2.138290
H  -1.665790  -2.786520  -0.725820
H  -3.068820  -2.846970  -1.803920
H  -4.709580  0.284190  -0.947910
H  -3.240510  0.478910  -1.924490
H  -4.345890  -0.874630  -2.221640
H  -5.248640  -0.204940  1.118520
H  -5.177690  -1.511310  2.285900
O  0.653640  1.332790  -2.054500
C  0.033300  2.455140  -1.726250
O  -0.121640  2.861140  -0.589810
C  -0.474940  3.208270  -2.938600
H  0.313790  3.292780  -3.688220
H  -1.293260  2.637290  -3.385670
H  -0.831780  4.193050  -2.640480
O  0.137900  -1.693440  0.624680
O  3.019320  -2.271580  1.032260
C  3.277510  -2.207880  -0.151410
O  2.538250  -1.599790  -1.065770
C  4.514620  -2.842680  -0.758090
H  5.085980  -3.347690  0.019490
H  4.218510  -3.552900  -1.532890
H  5.123240  -2.071090  -1.234820
