57
 energy: -87.046745041159 gnorm: 0.000914725474 xtb: 6.7.1 (edcfbbe)
I            0.69084683271443       -0.46592822480453       -0.22035136902857
C            1.87873543978427        0.96357242844029        0.73405358887711
C            1.77608270624360        1.05373432272605        2.10191758057323
C            2.76566710614305        1.73222240157916        0.01218074072118
C            2.57085361091525        1.96740652268868        2.77391639456202
H            1.09816698869545        0.40254993240237        2.62690557011026
C            3.55818407456523        2.64038297453575        0.69060053793929
H            2.83776737281289        1.60940087235834       -1.05586761633401
C            3.45661149512604        2.76330494628604        2.06815036264002
H            2.49792317247424        2.05373325855491        3.84794934124902
H            4.25779548723318        3.25349605468136        0.14188103764532
H            4.07521216836395        3.47810766760664        2.59097819772896
H           -1.21043216503270       -0.85527291958158        1.02159175814935
O           -1.32670753941161        0.14960011124906       -0.57191286471309
N           -2.20401654899984       -0.43949739377200        0.31205520397978
C           -2.94769970429623        0.56243274407587        1.11253197167380
C           -2.88618053194390       -1.59795560735704       -0.31013687655558
C           -3.85618060600941       -0.18093088509616        2.10009034021774
C           -3.72200489692120        1.53146444167868        0.21604783989693
C           -1.90929949595232        1.36487685752944        1.90317016018672
C           -3.77784139680669       -2.26130363053228        0.74521054480546
C           -1.79738865098954       -2.58550826375337       -0.74679824670442
C           -3.67296074997668       -1.18509448801399       -1.55829418122298
C           -4.69740218324059       -1.26527359499659        1.44039091071775
H           -3.23147539271657       -0.64667403697599        2.86581875841633
H           -4.49838587869936        0.55114011078171        2.59135534117957
H           -3.06546870747654        1.88099518175828       -0.57656817709523
H           -4.60249650025813        1.07831635642723       -0.22629164781816
H           -4.04031650904418        2.39055298125243        0.80064007425326
H           -1.34791343285353        0.71595834586274        2.57087593646478
H           -1.22229736676149        1.86789957923753        1.22709965807883
H           -2.40984444686360        2.11977294012795        2.50423428825627
H           -4.36400669741082       -3.04292416021821        0.26064513107472
H           -3.13902011292730       -2.73376676732736        1.49442460033608
H           -1.21479602197355       -2.17059626605949       -1.56625181227568
H           -1.11587252030009       -2.81615064728237        0.06900940660642
H           -2.26174169789481       -3.50991154775087       -1.08090278176571
H           -4.62391976631229       -0.72164152062546       -1.31870921824043
H           -3.07656122502907       -0.48889911182585       -2.14193485984026
H           -3.87127431915658       -2.06312328867537       -2.16706640667191
H           -5.39919573009842       -0.82785154194875        0.72998708740506
H           -5.28603951001505       -1.78136101869617        2.20068336076861
O            0.63707833453850        0.84528271018418       -1.91663256502978
C            0.23319750478391        2.02166656005994       -1.59521988143963
O            0.00138025663430        2.37471187152722       -0.45327924469188
C            0.07033062448427        2.96176108983701       -2.77459939966496
H            0.92266161266901        2.86210942479849       -3.44038887536048
H           -0.82602343312110        2.67739123011488       -3.32129522587828
H           -0.02633653713820        3.98454135943329       -2.42262058944646
O           -0.00044267586854       -1.08236108715022        1.39243712346882
O            2.47821739338516       -1.77921117878257        0.56169558085721
C            3.21572764703769       -1.55297356577393       -0.43354334501395
O            2.87831226451320       -0.72740266430906       -1.30075114850186
C            4.51477092579782       -2.30804655407884       -0.56527715861694
H            4.88823810287633       -2.57491481141695        0.41805129606358
H            4.31887449569381       -3.21868972022566       -1.12723110796424
H            5.23737233402286       -1.70843828074432       -1.10970512502527
