57
 xtb: 6.7.1 (edcfbbe)
I            0.69302904315364       -0.47515670641556       -0.20142243990779
C            1.88086200101490        0.96539778122393        0.73190932659429
C            1.77676179360751        1.05465433055620        2.10060563723956
C            2.76610374308818        1.73265563469233        0.01211287185763
C            2.57059701255234        1.96728721896825        2.77379126026789
H            1.09756991553479        0.39976454027370        2.62214954369997
C            3.55851586502583        2.64081447771539        0.69051824000189
H            2.83814302599802        1.60987256528417       -1.05597752408496
C            3.45669773942252        2.76332581736404        2.06790887519733
H            2.49823641514772        2.05384644051222        3.84806999323054
H            4.25820220587632        3.25381633311388        0.14197832277175
H            4.07554509867179        3.47816633380285        2.59085300900536
H           -1.44707639226341       -0.81764526691858        0.93809190649593
O           -1.35175495901288        0.16192397183553       -0.58851276022507
N           -2.17406417838881       -0.44009531348367        0.31638662714780
C           -2.95256887892303        0.57059507987620        1.11962062250995
C           -2.88902837663589       -1.60778875360599       -0.31375730966362
C           -3.85595607927331       -0.18169635915814        2.10045526350537
C           -3.71942383619774        1.52658182899978        0.21343352927198
C           -1.90974597776323        1.36522232418070        1.90250478613226
C           -3.77753147408107       -2.26120887531015        0.74615126356150
C           -1.79901142842683       -2.58637800120030       -0.74700158318028
C           -3.67030232989809       -1.18037884879611       -1.55406602093126
C           -4.69760876647279       -1.26487953860482        1.43987729387770
H           -3.23093832611473       -0.64635432368232        2.86561095567624
H           -4.49815961211821        0.55066004237529        2.59177157704521
H           -3.06428634816384        1.87993330561718       -0.57660208542607
H           -4.60269234716774        1.07829011363116       -0.22652002038353
H           -4.03803776167674        2.38861059935698        0.80090780403366
H           -1.34557882775661        0.71378075670218        2.56621549207181
H           -1.22187211063801        1.86657888669440        1.22569139781852
H           -2.40857182764211        2.11956207820585        2.50539362284055
H           -4.36376563956600       -3.04291089586773        0.26110498730093
H           -3.13851682628075       -2.73379278492908        1.49406545408472
H           -1.21456097904221       -2.17004550814461       -1.56495931120401
H           -1.11507747276512       -2.81171249731623        0.06934196633993
H           -2.26111389546085       -3.51090873375055       -1.08017051254551
H           -4.62398643229665       -0.72141484115011       -1.31852582556149
H           -3.07550029875012       -0.48812806254450       -2.14081607461695
H           -3.86899987952733       -2.06247725161210       -2.16469533665479
H           -5.39997303090675       -0.82797842883784        0.73033911919092
H           -5.28544273542335       -1.78124675574951        2.20061797130596
O            0.62948152303340        0.85117986521409       -1.91438777087788
C            0.23620800240562        2.01549121090501       -1.59597909513328
O           -0.00156979853859        2.37524445722915       -0.45219463948359
C            0.07046967120893        2.96307358871613       -2.77484643209807
H            0.92281711571643        2.86297095833357       -3.44061653026489
H           -0.82616656455686        2.67766585211497       -3.32138797144817
H           -0.02606854812649        3.98510640279712       -2.42281551285579
O            0.04683605016047       -1.07852875739335        1.37650657289610
O            2.48146126125146       -1.77996952124075        0.55792001352149
C            3.21678761159982       -1.55112000454044       -0.43570638451345
O            2.88062726413503       -0.72961663087241       -1.30123042449665
C            4.51613371039626       -2.30829896845141       -0.56555211410693
H            4.88828856768283       -2.57473462679774        0.41812409372393
H            4.31888987634396       -3.21879189353278       -1.12719051424052
H            5.23819428249092       -1.70865103079242       -1.10959962537406
