57
pr1.tempo_ts3 mechanism_001 R endpoint
I  0.689470  -0.463570  -0.785870
C  1.835220  0.688560  0.624860
C  1.957390  0.170060  1.900500
C  2.487980  1.822780  0.177010
C  2.747730  0.881350  2.801510
H  1.487540  -0.767080  2.167990
C  3.285910  2.502480  1.093570
H  2.382700  2.168530  -0.841470
C  3.403730  2.041140  2.401750
H  2.860010  0.506230  3.812640
H  3.807210  3.399010  0.776930
H  4.022340  2.582240  3.110140
H  -0.825610  -1.413920  0.794710
O  -1.242560  0.305260  -0.569550
N  -2.065230  -0.386810  0.307540
C  -2.515150  0.563300  1.378950
C  -3.089560  -1.139720  -0.488730
C  -3.441420  -0.225730  2.313540
C  -3.178760  1.829770  0.823850
C  -1.261710  0.994180  2.141130
C  -3.992670  -1.867240  0.517370
C  -2.342420  -2.179260  -1.333350
C  -3.898550  -0.248990  -1.443840
C  -4.573850  -0.935960  1.577780
H  -2.839240  -0.973750  2.846740
H  -3.832630  0.467160  3.066070
H  -2.539400  2.271560  0.055070
H  -4.175970  1.656500  0.419140
H  -3.275000  2.555230  1.636980
H  -0.702690  0.123320  2.496700
H  -0.620460  1.612900  1.506290
H  -1.555090  1.585460  3.013080
H  -4.786470  -2.372690  -0.043560
H  -3.400790  -2.648100  1.013430
H  -1.777030  -1.698120  -2.138290
H  -1.665790  -2.786520  -0.725820
H  -3.068820  -2.846970  -1.803920
H  -4.709580  0.284190  -0.947910
H  -3.240510  0.478910  -1.924490
H  -4.345890  -0.874630  -2.221640
H  -5.248640  -0.204940  1.118520
H  -5.177690  -1.511310  2.285900
O  0.653640  1.332790  -2.054500
C  0.033300  2.455140  -1.726250
O  -0.121640  2.861140  -0.589810
C  -0.474940  3.208270  -2.938600
H  0.313790  3.292780  -3.688220
H  -1.293260  2.637290  -3.385670
H  -0.831780  4.193050  -2.640480
O  0.137900  -1.693440  0.624680
O  3.019320  -2.271580  1.032260
C  3.277510  -2.207880  -0.151410
O  2.538250  -1.599790  -1.065770
C  4.514620  -2.842680  -0.758090
H  5.085980  -3.347690  0.019490
H  4.218510  -3.552900  -1.532890
H  5.123240  -2.071090  -1.234820
57
pr1.tempo_ts3 mechanism_001 P aligned to R atom order
I  0.751010  -0.569170  -0.716050
C  1.825230  0.741320  0.604800
C  2.408370  1.896690  0.120130
C  1.956230  0.281400  1.902350
C  3.152270  2.656790  1.020430
H  2.280530  2.194020  -0.911200
C  2.692490  1.068390  2.785000
H  1.518270  -0.666910  2.193170
C  3.283350  2.250110  2.345510
H  3.618660  3.574360  0.679000
H  2.814350  0.742030  3.812060
H  3.859310  2.854430  3.038950
H  -1.368110  -1.037350  0.763160
O  -1.271710  0.238460  -0.675430
N  -2.064360  -0.367930  0.277320
C  -2.516630  0.667070  1.306170
C  -3.107780  -1.249050  -0.405630
C  -3.404100  -0.065610  2.319340
C  -3.203410  1.851230  0.630660
C  -1.242080  1.171790  1.978460
C  -3.959400  -1.884060  0.700380
C  -3.939350  -0.447180  -1.406710
C  -2.334880  -2.333800  -1.160710
C  -4.536440  -0.862250  1.677190
H  -3.792990  0.683700  3.016260
H  -2.774500  -0.747720  2.907380
H  -4.202110  1.627650  0.256150
H  -2.568370  2.230880  -0.174180
H  -3.301240  2.642580  1.378960
H  -1.522260  1.812950  2.818590
H  -0.646250  1.758530  1.272210
H  -0.649550  0.339060  2.368630
H  -4.753190  -2.461100  0.214430
H  -3.338180  -2.601440  1.253920
H  -4.757930  0.103230  -0.943980
H  -3.299780  0.249580  -1.952330
H  -4.377560  -1.147290  -2.122870
H  -1.615950  -2.843220  -0.513800
H  -3.050210  -3.068210  -1.539160
H  -1.809840  -1.905350  -2.019190
H  -5.234920  -0.191010  1.165880
H  -5.112520  -1.377860  2.450760
O  2.620580  -1.570460  -1.022860
C  3.366410  -2.143480  -0.082470
O  3.094300  -2.183470  1.095960
C  4.621760  -2.755210  -0.670360
H  4.349780  -3.489860  -1.430970
H  5.201490  -3.226590  0.121770
H  5.210750  -1.976620  -1.159800
O  0.115170  -1.621290  0.675260
O  -0.223750  2.848790  -0.769130
C  -0.034740  2.362020  -1.879880
O  0.649670  1.282110  -2.128540
C  -0.624360  3.007280  -3.124730
H  -1.435520  2.372420  -3.493690
H  0.127790  3.066440  -3.913390
H  -1.014820  3.996790  -2.888980
