57
pr1.tempo_ts3 mechanism_001 P aligned to R atom order
I  0.751010  -0.569170  -0.716050
C  1.825230  0.741320  0.604800
C  2.408370  1.896690  0.120130
C  1.956230  0.281400  1.902350
C  3.152270  2.656790  1.020430
H  2.280530  2.194020  -0.911200
C  2.692490  1.068390  2.785000
H  1.518270  -0.666910  2.193170
C  3.283350  2.250110  2.345510
H  3.618660  3.574360  0.679000
H  2.814350  0.742030  3.812060
H  3.859310  2.854430  3.038950
H  -1.368110  -1.037350  0.763160
O  -1.271710  0.238460  -0.675430
N  -2.064360  -0.367930  0.277320
C  -2.516630  0.667070  1.306170
C  -3.107780  -1.249050  -0.405630
C  -3.404100  -0.065610  2.319340
C  -3.203410  1.851230  0.630660
C  -1.242080  1.171790  1.978460
C  -3.959400  -1.884060  0.700380
C  -3.939350  -0.447180  -1.406710
C  -2.334880  -2.333800  -1.160710
C  -4.536440  -0.862250  1.677190
H  -3.792990  0.683700  3.016260
H  -2.774500  -0.747720  2.907380
H  -4.202110  1.627650  0.256150
H  -2.568370  2.230880  -0.174180
H  -3.301240  2.642580  1.378960
H  -1.522260  1.812950  2.818590
H  -0.646250  1.758530  1.272210
H  -0.649550  0.339060  2.368630
H  -4.753190  -2.461100  0.214430
H  -3.338180  -2.601440  1.253920
H  -4.757930  0.103230  -0.943980
H  -3.299780  0.249580  -1.952330
H  -4.377560  -1.147290  -2.122870
H  -1.615950  -2.843220  -0.513800
H  -3.050210  -3.068210  -1.539160
H  -1.809840  -1.905350  -2.019190
H  -5.234920  -0.191010  1.165880
H  -5.112520  -1.377860  2.450760
O  2.620580  -1.570460  -1.022860
C  3.366410  -2.143480  -0.082470
O  3.094300  -2.183470  1.095960
C  4.621760  -2.755210  -0.670360
H  4.349780  -3.489860  -1.430970
H  5.201490  -3.226590  0.121770
H  5.210750  -1.976620  -1.159800
O  0.115170  -1.621290  0.675260
O  -0.223750  2.848790  -0.769130
C  -0.034740  2.362020  -1.879880
O  0.649670  1.282110  -2.128540
C  -0.624360  3.007280  -3.124730
H  -1.435520  2.372420  -3.493690
H  0.127790  3.066440  -3.913390
H  -1.014820  3.996790  -2.888980
