57
6 from ja5c21609_si_001.pdf | charge=0 multiplicity=1
I       0.75101     -0.56917     -0.71605
C       1.82523      0.74132      0.60480
C       1.95623      0.28140      1.90235
C       2.40837      1.89669      0.12013
C       2.69249      1.06839      2.78500
H       1.51827     -0.66691      2.19317
C       3.15227      2.65679      1.02043
H       2.28053      2.19402     -0.91120
C       3.28335      2.25011      2.34551
H       2.81435      0.74203      3.81206
H       3.61866      3.57436      0.67900
H       3.85931      2.85443      3.03895
H      -1.36811     -1.03735      0.76316
O      -1.27171      0.23846     -0.67543
N      -2.06436     -0.36793      0.27732
C      -2.51663      0.66707      1.30617
C      -3.10778     -1.24905     -0.40563
C      -3.40410     -0.06561      2.31934
C      -3.20341      1.85123      0.63066
C      -1.24208      1.17179      1.97846
C      -3.95940     -1.88406      0.70038
C      -2.33488     -2.33380     -1.16071
C      -3.93935     -0.44718     -1.40671
C      -4.53644     -0.86225      1.67719
H      -2.77450     -0.74772      2.90738
H      -3.79299      0.68370      3.01626
H      -2.56837      2.23088     -0.17418
H      -4.20211      1.62765      0.25615
H      -3.30124      2.64258      1.37896
H      -0.64955      0.33906      2.36863
H      -0.64625      1.75853      1.27221
H      -1.52226      1.81295      2.81859
H      -4.75319     -2.46110      0.21443
H      -3.33818     -2.60144      1.25392
H      -1.80984     -1.90535     -2.01919
H      -1.61595     -2.84322     -0.51380
H      -3.05021     -3.06821     -1.53916
H      -4.75793      0.10323     -0.94398
H      -3.29978      0.24958     -1.95233
H      -4.37756     -1.14729     -2.12287
H      -5.23492     -0.19101      1.16588
H      -5.11252     -1.37786      2.45076
O       0.64967      1.28211     -2.12854
C      -0.03474      2.36202     -1.87988
O      -0.22375      2.84879     -0.76913
C      -0.62436      3.00728     -3.12473
H       0.12779      3.06644     -3.91339
H      -1.43552      2.37242     -3.49369
H      -1.01482      3.99679     -2.88898
O       0.11517     -1.62129      0.67526
O       3.09430     -2.18347      1.09596
C       3.36641     -2.14348     -0.08247
O       2.62058     -1.57046     -1.02286
C       4.62176     -2.75521     -0.67036
H       5.20149     -3.22659      0.12177
H       4.34978     -3.48986     -1.43097
H       5.21075     -1.97662     -1.15980
