57
TS3 from ja5c21609_si_001.pdf | charge=0 multiplicity=1
I       0.70230     -0.47118     -0.78041
C       1.84243      0.68050      0.63135
C       1.96532      0.12945      1.89352
C       2.48498      1.83083      0.21298
C       2.75486      0.81776      2.81259
H       1.48659     -0.81231      2.13261
C       3.28040      2.48942      1.14771
H       2.36820      2.20182     -0.79549
C       3.40455      1.99147      2.44197
H       2.87050      0.41796      3.81397
H       3.79402      3.39923      0.85720
H       4.02167      2.51664      3.16371
H      -1.16303     -1.12645      0.65756
O      -1.27297      0.34354     -0.64626
N      -2.04590     -0.36040      0.26144
C      -2.48990      0.57586      1.36988
C      -3.08840     -1.16841     -0.48787
C      -3.36348     -0.24261      2.32871
C      -3.19513      1.81533      0.81730
C      -1.22038      1.03707      2.08399
C      -3.92767     -1.90930      0.56123
C      -2.33737     -2.18552     -1.35430
C      -3.94430     -0.29178     -1.40769
C      -4.50009     -0.98513      1.63265
H      -2.72396     -0.97194      2.84445
H      -3.74649      0.44089      3.09354
H      -2.57504      2.27194      0.04150
H      -4.19392      1.61629      0.42983
H      -3.29534      2.53588      1.63382
H      -0.63182      0.18254      2.42829
H      -0.61663      1.66706      1.42344
H      -1.50544      1.62691      2.95943
H      -4.72338     -2.44532      0.03285
H      -3.29526     -2.66794      1.04196
H      -1.80647     -1.68430     -2.16951
H      -1.63077     -2.77712     -0.76708
H      -3.06601     -2.86371     -1.80536
H      -4.75433      0.21695     -0.88585
H      -3.31875      0.45179     -1.90626
H      -4.39684     -0.92997     -2.17153
H      -5.20846     -0.27524      1.19158
H      -5.06431     -1.57189      2.36328
O       0.66975      1.41284     -2.04213
C       0.03577      2.50951     -1.70155
O      -0.13260      2.90201     -0.55616
C      -0.49704      3.28208     -2.89496
H       0.27872      3.38463     -3.65581
H      -1.31834      2.71242     -3.33902
H      -0.85799      4.25962     -2.57761
O       0.02044     -1.59875      0.57716
O       2.93728     -2.36123      0.97537
C       3.24307     -2.23930     -0.19126
O       2.54789     -1.56835     -1.09890
C       4.49258     -2.85746     -0.78772
H       5.02486     -3.41764     -0.02037
H       4.21742     -3.51417     -1.61550
H       5.13063     -2.06845     -1.19181
