 Entering Gaussian System
 *********************************************
 Gaussian 98:
 frequency output generated by the xtb code
 *********************************************
                         Standard orientation:
 --------------------------------------------------------------------
  Center     Atomic     Atomic              Coordinates (Angstroms)
  Number     Number      Type              X           Y           Z
 --------------------------------------------------------------------
    1         53             0        0.690844   -0.465932   -0.220353
    2          6             0        1.878743    0.963564    0.734045
    3          6             0        1.776096    1.053729    2.101910
    4          6             0        2.765676    1.732208    0.012168
    5          6             0        2.570874    1.967398    2.773904
    6          1             0        1.098178    0.402549    2.626901
    7          6             0        3.558201    2.640366    0.690584
    8          1             0        2.837772    1.609384   -1.055880
    9          6             0        3.456634    2.763291    2.068134
   10          1             0        2.497948    2.053727    3.847937
   11          1             0        4.257813    3.253474    0.141861
   12          1             0        4.075240    3.478091    2.590958
   13          1             0       -1.210433   -0.855265    1.021598
   14          8             0       -1.326709    0.149606   -0.571909
   15          7             0       -2.204018   -0.439485    0.312064
   16          6             0       -2.947693    0.562450    1.112541
   17          6             0       -2.886190   -1.597941   -0.310124
   18          6             0       -3.856175   -0.180907    2.100104
   19          6             0       -3.721996    1.531484    0.216058
   20          6             0       -1.909286    1.364890    1.903175
   21          6             0       -3.777851   -2.261283    0.745228
   22          6             0       -1.797405   -2.585500   -0.746788
   23          6             0       -3.672973   -1.185078   -1.558279
   24          6             0       -4.697404   -1.265247    1.440410
   25          1             0       -3.231469   -0.646652    2.865831
   26          1             0       -4.498374    0.551168    2.591370
   27          1             0       -3.065461    1.881010   -0.576561
   28          1             0       -4.602492    1.078340   -0.226277
   29          1             0       -4.040302    2.390576    0.800650
   30          1             0       -1.347901    0.715970    2.570880
   31          1             0       -1.222283    1.867908    1.227101
   32          1             0       -2.409825    2.119790    2.504239
   33          1             0       -4.364022   -3.042901    0.260666
   34          1             0       -3.139030   -2.733748    1.494440
   35          1             0       -1.214813   -2.170593   -1.566244
   36          1             0       -1.115887   -2.816145    0.069018
   37          1             0       -2.261764   -3.509902   -1.080889
   38          1             0       -4.623929   -0.721620   -1.318692
   39          1             0       -3.076572   -0.488887   -2.141923
   40          1             0       -3.871293   -2.063107   -2.167049
   41          1             0       -5.399198   -0.827822    0.730007
   42          1             0       -5.286042   -1.781330    2.200705
   43          8             0        0.637076    0.845276   -1.916636
   44          6             0        0.233203    2.021663   -1.595224
   45          8             0        0.001391    2.374711   -0.453283
   46          6             0        0.070336    2.961756   -2.774605
   47          1             0        0.922665    2.862099   -3.440397
   48          1             0       -0.826021    2.677390   -3.321297
   49          1             0       -0.026324    3.984538   -2.422628
   50          8             0       -0.000443   -1.082359    1.392439
   51          8             0        2.478210   -1.779223    0.561690
   52          6             0        3.215718   -1.552991   -0.433552
   53          8             0        2.878304   -0.727420   -1.300760
   54          6             0        4.514757   -2.308071   -0.565289
   55          1             0        4.888227   -2.574940    0.418039
   56          1             0        4.318854   -3.218715   -1.127241
   57          1             0        5.237360   -1.708468   -1.109721
 --------------------------------------------------------------------
     1 basis functions        1 primitive gaussians
     1 alpha electrons        1 beta electrons

 Harmonic frequencies (cm**-1), IR intensities (km*mol⁻¹),
 Raman scattering activities (A**4/amu), Raman depolarization ratios,
 reduced masses (AMU), force constants (mDyne/A) and normal coordinates:
                      1                      2                      3
                        a                      a                      a 
 Frequencies -- -1129.9292                26.9805                29.5749
 Red. masses --     2.8440                 8.8342                10.3204
 Frc consts  --     0.0000                 0.0000                 0.0000
 IR Inten    --  2784.2721                 0.0160                 0.9344
 Raman Activ --     0.0000                 0.0000                 0.0000
 Depolar     --     0.0000                 0.0000                 0.0000
 Atom AN      X      Y      Z        X      Y      Z        X      Y      Z
   1  53     0.01  -0.03   0.07    -0.04   0.16   0.05    -0.05   0.17   0.06
   2   6     0.01   0.01  -0.01     0.06   0.01  -0.02     0.07   0.01  -0.03
   3   6     0.00   0.00  -0.00     0.06   0.07  -0.03     0.07   0.07  -0.03
   4   6     0.00   0.00  -0.00     0.10  -0.05  -0.05     0.10  -0.05  -0.06
   5   6    -0.00  -0.00  -0.00     0.10   0.05  -0.06     0.12   0.05  -0.07
   6   1    -0.00  -0.01  -0.02     0.00   0.04  -0.00     0.01   0.04  -0.00
   7   6     0.00   0.00  -0.00     0.14  -0.07  -0.08     0.15  -0.07  -0.09
   8   1     0.00   0.00  -0.00     0.03  -0.02  -0.01     0.03  -0.03  -0.02
   9   6     0.00   0.00  -0.00     0.14  -0.02  -0.08     0.16  -0.02  -0.09
  10   1     0.00   0.00   0.00     0.03   0.03  -0.02     0.03   0.03  -0.02
  11   1     0.00   0.00   0.00     0.05  -0.03  -0.03     0.05  -0.04  -0.03
  12   1     0.00   0.00  -0.00     0.05  -0.01  -0.03     0.06  -0.01  -0.03
  13   1    -0.89   0.14  -0.32    -0.00   0.01   0.00    -0.00   0.02   0.01
  14   8    -0.09   0.05  -0.06    -0.04   0.01  -0.01    -0.04   0.01  -0.02
  15   7     0.11  -0.00   0.02    -0.02  -0.01  -0.01    -0.03  -0.01  -0.01
  16   6    -0.02   0.03   0.03    -0.08  -0.03  -0.04    -0.09  -0.02  -0.06
  17   6    -0.01  -0.04  -0.01     0.04  -0.05  -0.00     0.04  -0.06   0.01
  18   6     0.00  -0.00   0.00    -0.07  -0.05  -0.05    -0.08  -0.04  -0.05
  19   6     0.01  -0.02  -0.01    -0.10  -0.08  -0.08    -0.12  -0.09  -0.10
  20   6    -0.00   0.00  -0.00    -0.13   0.03  -0.03    -0.15   0.05  -0.05
  21   6     0.00   0.00   0.00     0.05  -0.07  -0.00     0.06  -0.08   0.02
  22   6    -0.01  -0.00  -0.00     0.08  -0.02   0.04     0.09  -0.03   0.06
  23   6     0.01   0.02   0.02     0.04  -0.11  -0.02     0.04  -0.14  -0.01
  24   6    -0.00   0.00  -0.00    -0.01  -0.10  -0.04    -0.01  -0.10  -0.03
  25   1     0.00   0.00  -0.00    -0.02  -0.00  -0.01    -0.02   0.01  -0.01
  26   1     0.00  -0.00   0.00    -0.03  -0.02  -0.02    -0.04  -0.01  -0.03
  27   1     0.00  -0.00  -0.00    -0.03  -0.02  -0.02    -0.04  -0.03  -0.03
  28   1    -0.00  -0.00  -0.00    -0.02  -0.04  -0.02    -0.03  -0.04  -0.02
  29   1     0.01  -0.01   0.00    -0.04  -0.02  -0.03    -0.05  -0.02  -0.04
  30   1     0.01  -0.01  -0.02    -0.04   0.02  -0.00    -0.04   0.03  -0.01
  31   1     0.00  -0.01  -0.01    -0.04   0.01  -0.01    -0.05   0.02  -0.01
  32   1     0.00  -0.00   0.00    -0.05   0.00  -0.02    -0.06   0.01  -0.02
  33   1     0.00  -0.00   0.00     0.03  -0.03   0.00     0.03  -0.04   0.01
  34   1     0.00  -0.00  -0.00     0.02  -0.01   0.01     0.02  -0.00   0.01
  35   1     0.00   0.00   0.00     0.02  -0.01   0.01     0.02  -0.01   0.01
  36   1     0.00   0.02   0.00     0.02   0.01   0.01     0.03   0.01   0.02
  37   1     0.00  -0.00   0.00     0.03  -0.01   0.02     0.04  -0.02   0.03
  38   1    -0.00   0.00   0.00     0.01  -0.04  -0.01     0.01  -0.05  -0.01
  39   1     0.00   0.00   0.00     0.01  -0.03  -0.01     0.01  -0.04  -0.01
  40   1     0.01   0.00   0.01     0.02  -0.04  -0.00     0.03  -0.05   0.01
  41   1    -0.00  -0.00   0.00    -0.00  -0.04  -0.02    -0.01  -0.05  -0.02
  42   1     0.00   0.00  -0.00    -0.00  -0.03  -0.01     0.00  -0.03  -0.01
  43   8    -0.03   0.02   0.01    -0.01   0.07   0.02    -0.01   0.07   0.02
  44   6     0.01  -0.02  -0.00     0.02   0.04   0.09     0.02   0.04   0.09
  45   8    -0.01   0.00   0.00     0.02  -0.04   0.13     0.02  -0.05   0.13
  46   6     0.00   0.00  -0.00     0.05   0.14   0.16     0.06   0.14   0.16
  47   1     0.00   0.00  -0.00     0.02   0.06   0.05     0.03   0.06   0.06
  48   1    -0.00   0.00  -0.00     0.02   0.05   0.03     0.02   0.05   0.03
  49   1     0.00   0.00  -0.00     0.01   0.03   0.07     0.01   0.03   0.07
  50   8     0.18   0.01  -0.06    -0.01   0.11   0.04    -0.02   0.13   0.04
  51   8     0.01  -0.00  -0.01    -0.05   0.01   0.01    -0.07  -0.02   0.02
  52   6     0.00   0.01  -0.01    -0.06  -0.06  -0.01    -0.06  -0.07   0.00
  53   8     0.01  -0.01  -0.00    -0.03  -0.07  -0.03    -0.04  -0.07  -0.01
  54   6     0.01  -0.00  -0.00    -0.11  -0.14  -0.01    -0.11  -0.14  -0.02
  55   1     0.00   0.00   0.00     0.17   0.31   0.02    -0.22  -0.37  -0.03
  56   1     0.00  -0.00   0.00    -0.13  -0.25   0.38     0.03   0.16  -0.35
  57   1     0.00  -0.00   0.00    -0.15  -0.22  -0.36     0.10   0.10   0.32
                      4                      5                      6
                        a                      a                      a 
 Frequencies --    43.0046                45.4556                45.9277
 Red. masses --    10.2972                12.9981                 3.5964
 Frc consts  --     0.0000                 0.0000                 0.0000
 IR Inten    --     0.0965                 0.6146                 0.4043
 Raman Activ --     0.0000                 0.0000                 0.0000
 Depolar     --     0.0000                 0.0000                 0.0000
 Atom AN      X      Y      Z        X      Y      Z        X      Y      Z
   1  53    -0.03   0.06  -0.01    -0.15   0.04  -0.12    -0.07   0.03  -0.06
   2   6     0.03  -0.01  -0.00    -0.04  -0.01  -0.01    -0.01  -0.01   0.00
   3   6     0.18  -0.15   0.02    -0.03  -0.07  -0.00     0.03  -0.07   0.01
   4   6    -0.01   0.03  -0.02    -0.02   0.00   0.03    -0.02   0.01   0.01
   5   6     0.30  -0.27   0.03     0.01  -0.13   0.04     0.08  -0.12   0.03
   6   1     0.06  -0.05   0.00    -0.01  -0.02  -0.01     0.01  -0.02  -0.00
   7   6     0.10  -0.09  -0.00     0.01  -0.06   0.07     0.03  -0.04   0.03
   8   1    -0.04   0.04  -0.01    -0.01   0.02   0.01    -0.01   0.01   0.00
   9   6     0.27  -0.24   0.02     0.03  -0.12   0.08     0.07  -0.11   0.04
  10   1     0.12  -0.11   0.01     0.01  -0.05   0.01     0.03  -0.05   0.01
  11   1     0.02  -0.02  -0.00     0.01  -0.02   0.03     0.01  -0.01   0.01
  12   1     0.11  -0.10   0.01     0.02  -0.05   0.03     0.03  -0.05   0.02
  13   1    -0.01   0.01  -0.00    -0.01   0.01  -0.01    -0.01   0.00  -0.01
  14   8    -0.03  -0.02  -0.04    -0.06   0.00  -0.06    -0.03  -0.00  -0.03
  15   7    -0.03   0.00  -0.02    -0.03   0.01  -0.03    -0.02   0.01  -0.02
  16   6    -0.03   0.02  -0.06    -0.03   0.00  -0.01    -0.01   0.01  -0.01
  17   6    -0.02  -0.02   0.00    -0.03  -0.03   0.04    -0.02  -0.01   0.02
  18   6    -0.07   0.06  -0.06     0.11  -0.02   0.09     0.04   0.01   0.03
  19   6    -0.00   0.01  -0.09    -0.16  -0.08   0.01    -0.06  -0.02  -0.01
  20   6    -0.04   0.03  -0.05    -0.01   0.10  -0.13    -0.00   0.05  -0.06
  21   6    -0.05   0.02  -0.00     0.11  -0.06   0.13     0.03  -0.01   0.06
  22   6    -0.01  -0.03   0.06    -0.02   0.02  -0.05    -0.02   0.01  -0.01
  23   6     0.02  -0.05  -0.03    -0.16  -0.08   0.10    -0.07  -0.03   0.04
  24   6    -0.06   0.05  -0.06     0.12  -0.10   0.20     0.04  -0.02   0.08
  25   1    -0.03   0.02  -0.01     0.06   0.01   0.01     0.02   0.01   0.01
  26   1    -0.02   0.02  -0.03     0.03  -0.01   0.04     0.01   0.00   0.01
  27   1     0.01  -0.00  -0.02    -0.08  -0.03  -0.03    -0.03  -0.01  -0.02
  28   1     0.00   0.00  -0.03    -0.06  -0.04   0.04    -0.02  -0.01   0.01
  29   1    -0.00   0.01  -0.03    -0.04  -0.02  -0.00    -0.01  -0.00  -0.01
  30   1    -0.01   0.01  -0.01     0.02   0.05  -0.04     0.01   0.02  -0.02
  31   1    -0.01   0.01  -0.01    -0.03   0.03  -0.06    -0.01   0.01  -0.03
  32   1    -0.01   0.01  -0.02    -0.00   0.03  -0.04    -0.00   0.01  -0.02
  33   1    -0.01   0.00   0.00     0.03  -0.03   0.06     0.01  -0.01   0.03
  34   1    -0.02   0.01   0.01     0.06  -0.00   0.02     0.02   0.00   0.01
  35   1     0.01  -0.02   0.02    -0.03   0.02  -0.03    -0.01   0.00  -0.01
  36   1    -0.01  -0.00   0.03     0.01   0.01  -0.03     0.00   0.00  -0.01
  37   1    -0.00  -0.01   0.02    -0.00   0.00  -0.01    -0.00   0.00   0.00
  38   1     0.01  -0.01  -0.02    -0.05  -0.04   0.05    -0.02  -0.02   0.02
  39   1     0.01  -0.03  -0.01    -0.07  -0.02   0.01    -0.03  -0.01   0.01
  40   1     0.00  -0.02   0.00    -0.05  -0.03   0.04    -0.02  -0.01   0.02
  41   1    -0.01   0.01  -0.03     0.00  -0.05   0.08     0.00  -0.01   0.03
  42   1    -0.03   0.02  -0.02     0.07  -0.03   0.08     0.02  -0.01   0.03
  43   8    -0.05  -0.00  -0.02     0.01  -0.03  -0.07    -0.01  -0.01  -0.03
  44   6    -0.12  -0.03  -0.01     0.14   0.02  -0.08     0.00  -0.00  -0.04
  45   8    -0.03  -0.03   0.01     0.03   0.01  -0.11    -0.02   0.00  -0.05
  46   6    -0.38  -0.09  -0.02     0.46   0.10  -0.06     0.10   0.00  -0.04
  47   1    -0.19  -0.08  -0.10     0.05  -0.15  -0.09     0.30   0.36   0.27
  48   1    -0.19   0.01   0.10     0.02   0.21   0.07     0.33  -0.31  -0.34
  49   1    -0.02  -0.01  -0.02     0.36   0.05  -0.02    -0.46  -0.05   0.01
  50   8    -0.03   0.04  -0.00    -0.05   0.02  -0.04    -0.03   0.01  -0.02
  51   8     0.01   0.09   0.05    -0.04   0.05   0.01    -0.01   0.04   0.01
  52   6     0.05   0.12   0.08    -0.00   0.08   0.04     0.01   0.06   0.03
  53   8     0.01   0.06   0.04    -0.02   0.04   0.01    -0.00   0.04   0.01
  54   6     0.14   0.27   0.20     0.06   0.17   0.12     0.05   0.12   0.08
  55   1     0.03   0.11   0.07     0.01   0.07   0.04     0.01   0.05   0.03
  56   1     0.08   0.06   0.07     0.04   0.04   0.05     0.03   0.03   0.03
  57   1     0.03   0.10   0.06     0.01   0.06   0.03     0.01   0.04   0.02
                      7                      8                      9
                        a                      a                      a 
 Frequencies --    51.4916                53.5176                73.6394
 Red. masses --    10.4857                13.2862                21.2212
 Frc consts  --     0.0000                 0.0000                 0.0000
 IR Inten    --     0.2254                 1.5861                 1.1320
 Raman Activ --     0.0000                 0.0000                 0.0000
 Depolar     --     0.0000                 0.0000                 0.0000
 Atom AN      X      Y      Z        X      Y      Z        X      Y      Z
   1  53     0.05  -0.02  -0.03    -0.09  -0.15  -0.00     0.09  -0.10  -0.27
   2   6    -0.02  -0.02   0.05    -0.00  -0.01  -0.08     0.04  -0.07  -0.03
   3   6    -0.03  -0.09   0.06     0.01   0.05  -0.08    -0.14   0.05  -0.05
   4   6    -0.03   0.05   0.10    -0.00  -0.05  -0.12     0.12  -0.13   0.01
   5   6    -0.06  -0.10   0.11     0.03   0.08  -0.13    -0.24   0.12  -0.03
   6   1    -0.00  -0.04   0.01     0.00   0.02  -0.01    -0.06   0.03  -0.02
   7   6    -0.07   0.04   0.15     0.01  -0.02  -0.17     0.04  -0.07   0.04
   8   1    -0.01   0.03   0.03    -0.00  -0.02  -0.03     0.07  -0.06   0.01
   9   6    -0.08  -0.03   0.16     0.03   0.04  -0.17    -0.15   0.06   0.01
  10   1    -0.02  -0.05   0.03     0.01   0.04  -0.04    -0.11   0.07  -0.01
  11   1    -0.02   0.03   0.05     0.00  -0.01  -0.06     0.03  -0.04   0.02
  12   1    -0.03  -0.01   0.06     0.01   0.02  -0.06    -0.07   0.03   0.01
  13   1     0.01   0.01   0.01     0.00  -0.02   0.01     0.00   0.00  -0.02
  14   8    -0.00  -0.11  -0.04    -0.02  -0.07   0.06    -0.01  -0.04  -0.11
  15   7     0.01  -0.02   0.03    -0.02  -0.06   0.06    -0.00   0.02  -0.06
  16   6    -0.00   0.07  -0.09     0.00  -0.04   0.06     0.04   0.06  -0.06
  17   6     0.02  -0.09   0.14    -0.05  -0.02   0.01    -0.04  -0.00   0.04
  18   6    -0.10   0.21  -0.08    -0.12   0.00  -0.03     0.07   0.11   0.02
  19   6     0.09   0.02  -0.23     0.14   0.06   0.05     0.01   0.03  -0.07
  20   6    -0.02   0.09  -0.10     0.02  -0.16   0.16     0.06   0.07  -0.10
  21   6    -0.05   0.06   0.17    -0.19   0.03  -0.07     0.05   0.04   0.14
  22   6     0.02  -0.17   0.31    -0.08  -0.08   0.10    -0.07  -0.01  -0.01
  23   6     0.08  -0.23   0.05     0.07   0.04  -0.04    -0.14  -0.06   0.08
  24   6    -0.08   0.16  -0.01    -0.17   0.09  -0.13     0.06   0.06   0.13
  25   1    -0.05   0.08   0.01    -0.06  -0.02   0.00     0.03   0.05   0.01
  26   1    -0.03   0.08  -0.06    -0.03   0.01  -0.01     0.02   0.04  -0.00
  27   1     0.05  -0.02  -0.06     0.07   0.03   0.04    -0.01  -0.02  -0.04
  28   1     0.03   0.00  -0.07     0.05   0.04  -0.02    -0.01   0.01   0.01
  29   1     0.02   0.02  -0.09     0.03   0.01   0.02     0.03   0.02  -0.03
  30   1    -0.02   0.03  -0.01    -0.02  -0.07   0.05     0.02   0.03  -0.03
  31   1     0.01   0.01  -0.03     0.03  -0.05   0.06     0.02   0.01  -0.04
  32   1    -0.01   0.04  -0.05     0.01  -0.04   0.05     0.02   0.03  -0.03
  33   1    -0.01   0.00   0.07    -0.06   0.02  -0.04     0.01  -0.00   0.06
  34   1    -0.03   0.04   0.08    -0.08  -0.01  -0.01     0.03   0.03   0.04
  35   1     0.02  -0.08   0.09    -0.00  -0.04   0.04    -0.03  -0.00  -0.01
  36   1    -0.01  -0.03   0.11    -0.04  -0.03   0.04    -0.01  -0.00  -0.01
  37   1     0.00  -0.06   0.11    -0.03  -0.02   0.02    -0.02  -0.00   0.00
  38   1     0.03  -0.04  -0.02     0.03   0.03  -0.03    -0.03  -0.01   0.04
  39   1     0.04  -0.10  -0.01     0.05  -0.00  -0.00    -0.05  -0.03  -0.00
  40   1     0.02  -0.09   0.05     0.01   0.01  -0.01    -0.06  -0.03   0.04
  41   1    -0.01   0.03  -0.03    -0.02   0.05  -0.05     0.00  -0.00   0.04
  42   1    -0.04   0.08   0.00    -0.08   0.04  -0.05     0.03   0.03   0.06
  43   8    -0.01   0.01   0.01    -0.08  -0.03   0.00     0.04   0.11  -0.01
  44   6     0.01   0.01   0.02     0.05  -0.00   0.08    -0.02   0.03   0.14
  45   8    -0.02  -0.02   0.03    -0.04  -0.11   0.11     0.10  -0.11   0.24
  46   6     0.09   0.05   0.05     0.33   0.16   0.17    -0.26   0.15   0.27
  47   1     0.03   0.01   0.02     0.12   0.04   0.09    -0.09   0.10   0.05
  48   1     0.03   0.03   0.00     0.11   0.10  -0.00    -0.08   0.03   0.10
  49   1     0.04   0.01   0.02     0.12   0.04   0.08    -0.10   0.03   0.12
  50   8     0.04  -0.01  -0.00     0.02  -0.06   0.02    -0.00  -0.04  -0.11
  51   8     0.10  -0.01  -0.15     0.06   0.09   0.00    -0.05  -0.09  -0.03
  52   6     0.01   0.04  -0.17     0.05   0.11   0.01     0.04  -0.04   0.05
  53   8    -0.04   0.13  -0.10    -0.05  -0.01  -0.08     0.08  -0.10  -0.01
  54   6    -0.02   0.02  -0.34     0.18   0.32   0.12     0.14   0.09   0.24
  55   1     0.03  -0.00  -0.11     0.04   0.11   0.04     0.01   0.05   0.09
  56   1    -0.03   0.01  -0.10     0.11   0.08   0.03     0.09   0.01   0.08
  57   1    -0.02   0.00  -0.12     0.04   0.12   0.05     0.04   0.04   0.08
                     10                     11                     12
                        a                      a                      a 
 Frequencies --    80.3434                96.5973               115.7428
 Red. masses --    12.3459                23.3184                17.7509
 Frc consts  --     0.0000                 0.0000                 0.0000
 IR Inten    --     0.3198                 2.5870                 3.0364
 Raman Activ --     0.0000                 0.0000                 0.0000
 Depolar     --     0.0000                 0.0000                 0.0000
 Atom AN      X      Y      Z        X      Y      Z        X      Y      Z
   1  53    -0.02  -0.03   0.12    -0.07   0.25  -0.21    -0.11  -0.10  -0.17
   2   6    -0.02   0.00   0.04    -0.08   0.10  -0.03    -0.00  -0.08  -0.04
   3   6    -0.24   0.21   0.01    -0.18   0.12  -0.03    -0.02  -0.09  -0.04
   4   6     0.20  -0.22   0.08     0.06  -0.01   0.04    -0.01  -0.06  -0.02
   5   6    -0.19   0.16   0.02    -0.10   0.00   0.03    -0.07  -0.06  -0.02
   6   1    -0.12   0.11  -0.00    -0.08   0.06  -0.02    -0.00  -0.03  -0.01
   7   6     0.29  -0.31   0.10     0.17  -0.15   0.11    -0.06  -0.03  -0.01
   8   1     0.09  -0.09   0.03     0.03  -0.00   0.01     0.00  -0.02  -0.01
   9   6     0.10  -0.12   0.07     0.09  -0.15   0.10    -0.10  -0.02  -0.01
  10   1    -0.11   0.09  -0.00    -0.05   0.00   0.01    -0.03  -0.02  -0.01
  11   1     0.14  -0.15   0.04     0.09  -0.08   0.05    -0.02   0.00   0.00
  12   1     0.05  -0.06   0.02     0.05  -0.08   0.05    -0.04   0.00  -0.00
  13   1    -0.00   0.00   0.02     0.00  -0.01  -0.03     0.01   0.03   0.02
  14   8     0.01   0.05   0.08    -0.05  -0.06  -0.08     0.03   0.19   0.15
  15   7    -0.01   0.02   0.04     0.02  -0.07  -0.01     0.06   0.10   0.11
  16   6    -0.06   0.00   0.02     0.11  -0.07   0.08    -0.04   0.04   0.08
  17   6     0.01   0.03  -0.01     0.02  -0.10   0.05     0.17   0.03   0.07
  18   6    -0.04  -0.03   0.01     0.05  -0.05   0.04    -0.03  -0.03   0.04
  19   6    -0.09  -0.03   0.00     0.20   0.05   0.14    -0.09  -0.02   0.07
  20   6    -0.09   0.05   0.01     0.19  -0.22   0.13    -0.11   0.11   0.10
  21   6     0.00  -0.01  -0.03    -0.04  -0.03   0.04     0.08   0.02  -0.01
  22   6     0.01   0.05  -0.03     0.03  -0.14   0.16     0.22   0.02   0.22
  23   6     0.02   0.06  -0.01     0.08  -0.15  -0.00     0.32  -0.02  -0.04
  24   6    -0.02  -0.04  -0.01    -0.01   0.04  -0.02     0.02  -0.01  -0.05
  25   1    -0.01  -0.01   0.00     0.00  -0.03   0.01    -0.01  -0.01   0.01
  26   1    -0.02  -0.01   0.00     0.03  -0.01   0.02    -0.02  -0.02   0.02
  27   1    -0.03  -0.01  -0.00     0.09   0.06   0.09    -0.02   0.04   0.05
  28   1    -0.02  -0.02   0.01     0.09   0.02  -0.02     0.01  -0.04  -0.02
  29   1    -0.03  -0.01  -0.00     0.02  -0.02   0.07    -0.08  -0.03   0.03
  30   1    -0.03   0.02   0.01     0.02  -0.09   0.04    -0.02   0.04   0.03
  31   1    -0.03   0.01   0.00     0.08  -0.09   0.05    -0.04   0.05   0.03
  32   1    -0.04   0.02  -0.01     0.08  -0.04   0.03    -0.05   0.02   0.03
  33   1     0.00   0.00  -0.02    -0.02  -0.00   0.01     0.04   0.01  -0.02
  34   1     0.00  -0.01  -0.01    -0.03  -0.01   0.02     0.01   0.00   0.01
  35   1     0.00   0.02  -0.01     0.02  -0.06   0.05     0.07  -0.02   0.06
  36   1     0.00   0.01  -0.01    -0.01  -0.03   0.06     0.06   0.03   0.08
  37   1     0.01   0.02  -0.01     0.01  -0.04   0.05     0.07  -0.01   0.09
  38   1    -0.00   0.00  -0.00     0.03  -0.01  -0.01     0.07  -0.02  -0.05
  39   1     0.00   0.03   0.01     0.04  -0.07  -0.02     0.10   0.00   0.01
  40   1     0.02   0.02  -0.02     0.00  -0.05   0.02     0.13  -0.01  -0.02
  41   1    -0.01  -0.01  -0.00     0.02   0.03  -0.02     0.02   0.00  -0.03
  42   1    -0.00  -0.02  -0.01    -0.03   0.02  -0.02    -0.01  -0.01  -0.03
  43   8     0.01  -0.08   0.01    -0.01   0.08  -0.10    -0.05   0.10   0.06
  44   6     0.02  -0.05  -0.05    -0.05   0.06  -0.11     0.01   0.13  -0.01
  45   8     0.11   0.03  -0.07    -0.15   0.04  -0.13     0.08   0.30  -0.05
  46   6    -0.07  -0.15  -0.12    -0.01   0.07  -0.11    -0.00   0.01  -0.12
  47   1    -0.02  -0.05  -0.04    -0.00   0.01  -0.03     0.00  -0.01  -0.03
  48   1    -0.02  -0.07  -0.02    -0.00   0.03  -0.03     0.00  -0.02  -0.03
  49   1    -0.03  -0.04  -0.06     0.00   0.02  -0.03    -0.01   0.01  -0.07
  50   8     0.01   0.00   0.06     0.02  -0.00  -0.10     0.04   0.01  -0.01
  51   8     0.15   0.11  -0.05    -0.10   0.13   0.08    -0.20  -0.30  -0.18
  52   6     0.02   0.09  -0.12    -0.03   0.00   0.08    -0.05  -0.10  -0.02
  53   8    -0.14   0.00  -0.17     0.09   0.01   0.06    -0.00  -0.07  -0.00
  54   6     0.09   0.22  -0.20    -0.13  -0.17   0.16     0.08   0.10   0.16
  55   1     0.05   0.07  -0.06    -0.06  -0.06   0.05     0.00   0.07   0.06
  56   1     0.05   0.07  -0.06    -0.07  -0.04   0.04     0.09   0.01   0.06
  57   1     0.00   0.09  -0.06    -0.00  -0.08   0.06     0.01   0.05   0.06
                     13                     14                     15
                        a                      a                      a 
 Frequencies --   124.2542               128.8197               136.2198
 Red. masses --    15.6247                16.3915                32.1695
 Frc consts  --     0.0000                 0.0000                 0.0000
 IR Inten    --     6.9800                 8.1683                 6.6622
 Raman Activ --     0.0000                 0.0000                 0.0000
 Depolar     --     0.0000                 0.0000                 0.0000
 Atom AN      X      Y      Z        X      Y      Z        X      Y      Z
   1  53     0.05   0.17  -0.10     0.16  -0.14   0.03     0.37   0.08  -0.20
   2   6     0.11  -0.02  -0.01    -0.07   0.05   0.02     0.08   0.03  -0.02
   3   6     0.07  -0.06  -0.01    -0.04   0.09   0.02     0.04   0.02  -0.02
   4   6     0.10   0.04   0.04    -0.05  -0.01  -0.02     0.09   0.06   0.02
   5   6    -0.03  -0.02   0.04     0.04   0.05  -0.03     0.01   0.02   0.02
   6   1     0.03  -0.03  -0.02    -0.02   0.04   0.02     0.00   0.01  -0.01
   7   6    -0.01   0.10   0.10     0.04  -0.06  -0.07     0.07   0.05   0.06
   8   1     0.04   0.02   0.01    -0.03  -0.01  -0.01     0.03   0.02   0.01
   9   6    -0.08   0.08   0.09     0.10  -0.05  -0.06     0.04   0.03   0.06
  10   1    -0.02  -0.02   0.01     0.02   0.02  -0.01    -0.01   0.00   0.01
  11   1    -0.01   0.05   0.04     0.02  -0.04  -0.03     0.02   0.02   0.02
  12   1    -0.05   0.04   0.04     0.05  -0.03  -0.03     0.01   0.01   0.02
  13   1    -0.00   0.02  -0.00     0.01  -0.03   0.00     0.00  -0.00   0.02
  14   8    -0.08   0.01  -0.05     0.03  -0.11  -0.00    -0.10   0.01   0.08
  15   7    -0.04   0.03  -0.01    -0.02  -0.07  -0.01    -0.09  -0.01   0.09
  16   6    -0.03  -0.02   0.07    -0.00  -0.03  -0.04    -0.18  -0.04   0.07
  17   6    -0.06   0.02  -0.00    -0.10  -0.01  -0.02    -0.13   0.01   0.08
  18   6     0.15  -0.13   0.13     0.17  -0.06   0.09    -0.31  -0.01  -0.01
  19   6    -0.24  -0.09   0.18    -0.19  -0.18  -0.03    -0.11  -0.01   0.03
  20   6    -0.02   0.07  -0.04     0.00   0.12  -0.21    -0.26  -0.06   0.19
  21   6    -0.25   0.05  -0.13    -0.26   0.05  -0.10    -0.11  -0.03   0.09
  22   6    -0.05  -0.07   0.20    -0.16  -0.12   0.09    -0.15   0.02   0.01
  23   6     0.13   0.02  -0.12     0.03   0.04  -0.09    -0.21   0.04   0.14
  24   6    -0.07   0.09   0.05    -0.05   0.11   0.09    -0.22  -0.07  -0.01
  25   1     0.08  -0.10  -0.03     0.09  -0.06  -0.03    -0.12   0.02   0.03
  26   1     0.09  -0.05   0.12     0.10  -0.02   0.09    -0.11   0.01  -0.04
  27   1    -0.09   0.05   0.07    -0.09  -0.06  -0.05    -0.03  -0.03   0.00
  28   1    -0.03  -0.07   0.03    -0.07  -0.08   0.04    -0.05   0.01   0.02
  29   1    -0.13  -0.07   0.08    -0.04  -0.04  -0.02    -0.01   0.01   0.00
  30   1     0.01   0.04  -0.00     0.04   0.06  -0.07    -0.08  -0.03   0.05
  31   1    -0.02   0.01  -0.03    -0.04   0.04  -0.09    -0.07   0.00   0.07
  32   1    -0.01   0.03  -0.03    -0.00   0.03  -0.06    -0.09  -0.04   0.06
  33   1    -0.11   0.07  -0.08    -0.12   0.07  -0.06    -0.00  -0.03   0.03
  34   1    -0.11  -0.06  -0.05    -0.10  -0.06  -0.05    -0.03   0.02   0.04
  35   1     0.02  -0.05   0.07    -0.01  -0.05   0.04    -0.05   0.02   0.01
  36   1    -0.04  -0.01   0.08    -0.07  -0.05   0.05    -0.04  -0.01  -0.00
  37   1    -0.01  -0.02   0.07    -0.06  -0.03   0.02    -0.04   0.01  -0.01
  38   1     0.02  -0.01  -0.07    -0.01  -0.01  -0.05    -0.06   0.01   0.06
  39   1     0.05   0.03   0.00     0.02   0.03   0.01    -0.07   0.02   0.04
  40   1     0.08   0.01  -0.06     0.04   0.02  -0.05    -0.07   0.02   0.04
  41   1    -0.01   0.09   0.04    -0.02   0.08   0.06    -0.06  -0.04  -0.02
  42   1    -0.03   0.02   0.00    -0.01   0.03   0.03    -0.07  -0.02  -0.00
  43   8     0.08  -0.15  -0.21    -0.04   0.18   0.20     0.09   0.02  -0.02
  44   6     0.08  -0.17  -0.07    -0.07   0.18   0.08     0.01   0.01  -0.06
  45   8     0.19  -0.36  -0.00    -0.17   0.35   0.02    -0.08   0.02  -0.10
  46   6    -0.03  -0.03   0.06     0.02   0.07  -0.03     0.05  -0.04  -0.11
  47   1    -0.02   0.03   0.00     0.01  -0.01   0.00     0.02  -0.03  -0.03
  48   1    -0.01  -0.01   0.02     0.01   0.02  -0.01     0.02  -0.02  -0.03
  49   1    -0.02  -0.02   0.06     0.01   0.03  -0.04     0.02  -0.01  -0.05
  50   8    -0.00   0.15  -0.00     0.02  -0.15  -0.04     0.09   0.02  -0.06
  51   8     0.01   0.01   0.00     0.06   0.01   0.01     0.01  -0.19  -0.10
  52   6    -0.01  -0.01  -0.01     0.08   0.01   0.02     0.09  -0.07   0.00
  53   8    -0.03  -0.05  -0.05     0.14   0.07   0.07     0.21   0.03   0.07
  54   6     0.00   0.00  -0.00     0.02  -0.08  -0.01     0.10  -0.08   0.04
  55   1     0.00   0.00   0.00     0.01  -0.03  -0.01     0.02  -0.02   0.02
  56   1     0.01   0.00  -0.00    -0.02  -0.02  -0.00     0.03  -0.03   0.02
  57   1    -0.00   0.00   0.00     0.02  -0.04  -0.01     0.03  -0.03   0.01
                     16                     17                     18
                        a                      a                      a 
 Frequencies --   147.4247               153.1187               162.3361
 Red. masses --    19.0573                 2.9463                14.1471
 Frc consts  --     0.0000                 0.0000                 0.0000
 IR Inten    --     2.8084                 0.5779                 2.3912
 Raman Activ --     0.0000                 0.0000                 0.0000
 Depolar     --     0.0000                 0.0000                 0.0000
 Atom AN      X      Y      Z        X      Y      Z        X      Y      Z
   1  53    -0.10   0.15   0.15     0.05  -0.08  -0.01     0.03   0.07   0.02
   2   6     0.07  -0.04   0.09    -0.03   0.01  -0.00     0.12  -0.08   0.03
   3   6     0.09   0.06   0.08    -0.02   0.01  -0.00     0.14  -0.12   0.03
   4   6     0.06  -0.06   0.04    -0.03   0.00  -0.01     0.09  -0.05   0.03
   5   6     0.08   0.14   0.01     0.00  -0.01  -0.01     0.03  -0.03   0.03
   6   1     0.02   0.03   0.04    -0.01   0.01  -0.00     0.06  -0.06   0.01
   7   6     0.06  -0.01  -0.04    -0.01  -0.01  -0.01    -0.04   0.07   0.03
   8   1     0.01  -0.03   0.01    -0.01   0.00  -0.00     0.04  -0.02   0.01
   9   6     0.06   0.11  -0.05     0.02  -0.03  -0.01    -0.10   0.11   0.02
  10   1     0.02   0.07  -0.00     0.00  -0.00  -0.00     0.01  -0.01   0.01
  11   1     0.01  -0.01  -0.03    -0.00  -0.01  -0.00    -0.03   0.04   0.01
  12   1     0.01   0.05  -0.03     0.01  -0.01  -0.00    -0.07   0.07   0.00
  13   1    -0.01  -0.00  -0.02    -0.00   0.01   0.00    -0.01  -0.01  -0.02
  14   8    -0.08  -0.04  -0.14     0.01  -0.02  -0.03    -0.06   0.01  -0.06
  15   7    -0.06  -0.04  -0.13    -0.01   0.03  -0.01    -0.07  -0.03  -0.08
  16   6     0.05  -0.04  -0.03     0.00   0.03  -0.02    -0.02  -0.04  -0.01
  17   6    -0.07  -0.07  -0.05    -0.02   0.01   0.00    -0.07  -0.06  -0.02
  18   6     0.07  -0.03  -0.01     0.01   0.03  -0.01    -0.04  -0.03  -0.01
  19   6     0.06   0.04   0.05     0.03   0.04  -0.03    -0.00   0.02   0.05
  20   6     0.15  -0.14  -0.06    -0.04   0.06   0.00     0.04  -0.12  -0.00
  21   6    -0.05  -0.03  -0.01     0.03   0.01   0.04    -0.05  -0.03   0.03
  22   6    -0.07  -0.08  -0.02     0.01   0.06  -0.03    -0.07  -0.07   0.01
  23   6    -0.12  -0.16  -0.05    -0.09  -0.02   0.02    -0.14  -0.16  -0.01
  24   6     0.00   0.02  -0.00     0.02   0.01   0.02    -0.06  -0.01  -0.01
  25   1     0.03  -0.02  -0.02     0.01   0.01  -0.00    -0.02  -0.01  -0.00
  26   1     0.04  -0.01   0.01     0.00   0.01  -0.00    -0.01  -0.00  -0.00
  27   1     0.04   0.07   0.05     0.14   0.33   0.24     0.02   0.07   0.06
  28   1     0.05   0.01  -0.04     0.24  -0.11  -0.35     0.04  -0.00  -0.05
  29   1    -0.02  -0.02   0.05    -0.35  -0.19   0.09    -0.06  -0.04   0.05
  30   1     0.02  -0.05  -0.01    -0.05   0.04   0.05    -0.00  -0.05   0.00
  31   1     0.06  -0.07  -0.02     0.03  -0.03   0.01     0.02  -0.05   0.00
  32   1     0.07  -0.02  -0.03    -0.02   0.06  -0.06     0.03  -0.02  -0.00
  33   1    -0.03  -0.01   0.01     0.01  -0.01   0.02    -0.01  -0.02   0.02
  34   1    -0.01  -0.01  -0.01     0.02   0.01   0.01    -0.01   0.00   0.01
  35   1    -0.02  -0.03  -0.01    -0.02   0.02  -0.02    -0.02  -0.02   0.01
  36   1    -0.02  -0.01  -0.01     0.02   0.03  -0.02    -0.02  -0.02   0.01
  37   1    -0.02  -0.03   0.00     0.01   0.01   0.01    -0.02  -0.02   0.00
  38   1    -0.02  -0.02  -0.01    -0.18  -0.32   0.01    -0.03  -0.04   0.00
  39   1    -0.04  -0.07  -0.05    -0.18   0.25   0.16    -0.05  -0.06  -0.03
  40   1    -0.06  -0.06   0.02     0.26   0.04  -0.16    -0.05  -0.06   0.02
  41   1     0.01   0.02   0.00     0.00   0.00   0.01    -0.01  -0.00  -0.01
  42   1    -0.01   0.01   0.00     0.01   0.01   0.01    -0.02   0.00  -0.00
  43   8     0.17   0.03   0.08     0.04   0.01   0.03     0.09   0.12   0.17
  44   6     0.08   0.02   0.00    -0.04  -0.01   0.02     0.10   0.15   0.05
  45   8     0.06   0.07  -0.01    -0.15  -0.05   0.01     0.23   0.36   0.02
  46   6     0.01  -0.08  -0.07     0.01   0.01   0.03    -0.01  -0.07  -0.11
  47   1    -0.00  -0.03  -0.02     0.01   0.00   0.01    -0.01  -0.04  -0.04
  48   1     0.00  -0.05  -0.00     0.00   0.01   0.00    -0.00  -0.07  -0.01
  49   1    -0.01  -0.02  -0.05     0.01   0.00   0.01    -0.02  -0.00  -0.09
  50   8    -0.10   0.10   0.03    -0.01   0.01  -0.00    -0.06   0.03  -0.01
  51   8    -0.19  -0.50  -0.20     0.04   0.01   0.02     0.12   0.28   0.11
  52   6    -0.07  -0.06  -0.01     0.03   0.00   0.01    -0.02  -0.03  -0.07
  53   8    -0.04   0.19   0.22     0.02   0.01   0.02    -0.18  -0.37  -0.33
  54   6     0.07   0.19  -0.11     0.01  -0.01  -0.03     0.01  -0.00   0.07
  55   1     0.06   0.07  -0.04     0.01  -0.01  -0.01    -0.02   0.01   0.03
  56   1     0.07   0.04  -0.03    -0.00  -0.00  -0.01     0.03  -0.01   0.02
  57   1    -0.03   0.11  -0.04     0.00  -0.00  -0.01     0.01   0.00   0.04
                     19                     20                     21
                        a                      a                      a 
 Frequencies --   179.3026               189.3625               219.8655
 Red. masses --    14.9896                16.3486                19.5705
 Frc consts  --     0.0000                 0.0000                 0.0000
 IR Inten    --     9.8013                 5.2085                18.9031
 Raman Activ --     0.0000                 0.0000                 0.0000
 Depolar     --     0.0000                 0.0000                 0.0000
 Atom AN      X      Y      Z        X      Y      Z        X      Y      Z
   1  53    -0.05  -0.01   0.01    -0.09   0.19   0.11    -0.11   0.07  -0.23
   2   6    -0.01   0.03  -0.02     0.11   0.00  -0.01    -0.05  -0.07   0.07
   3   6    -0.02   0.02  -0.03     0.07  -0.02  -0.01     0.01  -0.04   0.07
   4   6    -0.01   0.03  -0.02     0.13   0.03   0.04    -0.07  -0.11   0.00
   5   6    -0.00   0.01  -0.02    -0.01   0.01   0.04     0.03   0.01  -0.02
   6   1    -0.01   0.01  -0.01     0.02  -0.01  -0.01     0.01  -0.01   0.03
   7   6    -0.00   0.02  -0.02     0.06   0.05   0.10    -0.06  -0.06  -0.10
   8   1    -0.01   0.02  -0.01     0.05   0.01   0.01    -0.03  -0.05   0.00
   9   6     0.01  -0.00  -0.01    -0.02   0.06   0.09    -0.03   0.01  -0.10
  10   1    -0.00  -0.00  -0.01    -0.02  -0.00   0.01     0.03   0.02  -0.01
  11   1    -0.00   0.01  -0.00     0.02   0.02   0.04    -0.03  -0.03  -0.05
  12   1     0.01  -0.00  -0.00    -0.03   0.03   0.04    -0.01   0.02  -0.05
  13   1    -0.00  -0.03   0.00     0.03  -0.03   0.02    -0.01  -0.01  -0.02
  14   8     0.01  -0.01   0.09     0.04  -0.10   0.09    -0.03   0.05  -0.01
  15   7     0.00  -0.08   0.05     0.10  -0.16   0.11     0.05  -0.01   0.04
  16   6    -0.01  -0.06   0.00     0.08  -0.09  -0.02     0.01  -0.04   0.03
  17   6    -0.03  -0.04   0.01    -0.01  -0.03   0.02     0.02  -0.00   0.05
  18   6    -0.06  -0.00  -0.01     0.04   0.01  -0.00    -0.05   0.00   0.01
  19   6     0.05  -0.08  -0.07     0.20  -0.21  -0.25     0.04  -0.11  -0.08
  20   6     0.01  -0.06  -0.02     0.06  -0.03  -0.05    -0.03  -0.05   0.08
  21   6    -0.04  -0.03   0.02    -0.07  -0.03  -0.02    -0.00   0.00   0.04
  22   6    -0.06  -0.05  -0.02    -0.08  -0.07  -0.07    -0.01  -0.06   0.10
  23   6    -0.05   0.00   0.04     0.02   0.20   0.07     0.07   0.12   0.06
  24   6    -0.05  -0.02   0.00     0.00  -0.00   0.05    -0.03  -0.02   0.04
  25   1    -0.03   0.01   0.01     0.00   0.01   0.01    -0.02   0.01   0.02
  26   1    -0.02   0.01  -0.02     0.01   0.02  -0.02    -0.02   0.01  -0.02
  27   1     0.03  -0.01  -0.00     0.06  -0.18  -0.13    -0.01  -0.13  -0.09
  28   1     0.03  -0.04  -0.05     0.01  -0.04   0.00    -0.04  -0.01   0.07
  29   1    -0.02  -0.03  -0.03     0.14   0.02  -0.15     0.10   0.04  -0.08
  30   1    -0.02  -0.01   0.02     0.02   0.00  -0.00     0.02  -0.03  -0.02
  31   1     0.03  -0.05  -0.01     0.02  -0.02  -0.02    -0.04   0.04   0.04
  32   1     0.01   0.01  -0.03     0.01  -0.00  -0.03    -0.02  -0.06   0.07
  33   1    -0.01  -0.01   0.01    -0.04   0.02  -0.02     0.01   0.00   0.01
  34   1    -0.01  -0.01   0.01    -0.03  -0.04  -0.02    -0.00   0.00   0.01
  35   1    -0.01  -0.00   0.00    -0.03  -0.02  -0.03     0.00  -0.03   0.03
  36   1    -0.02  -0.03  -0.01    -0.01  -0.03  -0.03    -0.01  -0.02   0.04
  37   1    -0.02  -0.01  -0.02    -0.04  -0.01  -0.02    -0.02  -0.02   0.04
  38   1    -0.06  -0.09   0.02    -0.08  -0.12   0.04    -0.05  -0.12   0.02
  39   1    -0.06   0.08   0.06    -0.06   0.22   0.15    -0.04   0.18   0.13
  40   1     0.06   0.02  -0.04     0.16   0.12  -0.12     0.17   0.08  -0.10
  41   1    -0.02  -0.01  -0.00    -0.01   0.00   0.03    -0.02  -0.02   0.02
  42   1    -0.01  -0.00   0.00     0.02   0.00   0.03     0.00  -0.01   0.02
  43   8    -0.36  -0.11  -0.13    -0.08   0.02  -0.05     0.54   0.10   0.10
  44   6     0.12   0.03  -0.04    -0.07   0.01  -0.06     0.20   0.00   0.05
  45   8     0.71   0.17   0.04    -0.13  -0.02  -0.07     0.07  -0.06   0.04
  46   6    -0.05   0.04  -0.01     0.00   0.04  -0.06    -0.02  -0.12   0.00
  47   1    -0.02   0.04  -0.02     0.01   0.00  -0.01    -0.03  -0.02  -0.03
  48   1    -0.01  -0.01   0.01     0.00   0.03  -0.03    -0.02  -0.08   0.04
  49   1    -0.03   0.01   0.01     0.01   0.01  -0.01    -0.03  -0.03  -0.03
  50   8     0.03  -0.12  -0.02     0.14   0.06   0.11    -0.01  -0.16  -0.13
  51   8    -0.07   0.05  -0.03    -0.16  -0.10  -0.16    -0.02   0.13   0.14
  52   6     0.02   0.10   0.04    -0.09  -0.09  -0.11    -0.06   0.10   0.11
  53   8     0.14   0.27   0.14    -0.08  -0.17  -0.19    -0.10   0.13   0.13
  54   6    -0.08  -0.05   0.02     0.01   0.04   0.14    -0.12   0.05  -0.06
  55   1    -0.03  -0.03   0.00    -0.04   0.05   0.07    -0.00  -0.01  -0.04
  56   1    -0.07  -0.01   0.01     0.07  -0.01   0.05    -0.07   0.03  -0.03
  57   1    -0.00  -0.05   0.00     0.01   0.03   0.06    -0.04   0.01  -0.04
                     22                     23                     24
                        a                      a                      a 
 Frequencies --   227.2118               234.8181               240.8681
 Red. masses --    18.3488                14.4646                13.0954
 Frc consts  --     0.0000                 0.0000                 0.0000
 IR Inten    --    26.5303                 4.2844                 5.5888
 Raman Activ --     0.0000                 0.0000                 0.0000
 Depolar     --     0.0000                 0.0000                 0.0000
 Atom AN      X      Y      Z        X      Y      Z        X      Y      Z
   1  53    -0.05   0.06   0.21    -0.12  -0.06  -0.06    -0.09   0.06  -0.02
   2   6    -0.08  -0.07   0.23     0.13  -0.00  -0.12     0.22  -0.25   0.07
   3   6     0.02   0.01   0.24     0.08  -0.03  -0.13     0.25  -0.27   0.07
   4   6    -0.14  -0.15   0.09     0.17   0.05  -0.03     0.26  -0.33   0.04
   5   6     0.09   0.09   0.06    -0.04   0.00  -0.04    -0.03   0.02  -0.00
   6   1     0.01   0.02   0.10     0.02  -0.02  -0.05     0.10  -0.10   0.03
   7   6    -0.08  -0.08  -0.09     0.11   0.05   0.06     0.10  -0.16  -0.01
   8   1    -0.07  -0.08   0.03     0.07   0.04  -0.01     0.09  -0.12   0.02
   9   6     0.02   0.04  -0.09    -0.02   0.06   0.05    -0.21   0.17  -0.06
  10   1     0.06   0.06   0.02    -0.04  -0.00  -0.01    -0.04   0.05  -0.01
  11   1    -0.04  -0.04  -0.06     0.04   0.02   0.04     0.03  -0.05  -0.01
  12   1     0.01   0.03  -0.06    -0.03   0.03   0.03    -0.15   0.14  -0.04
  13   1    -0.00  -0.03   0.00     0.00   0.01  -0.00    -0.01  -0.00  -0.00
  14   8     0.01   0.06   0.05     0.02  -0.02  -0.02    -0.01  -0.03   0.01
  15   7    -0.01   0.01   0.00     0.00   0.01  -0.00    -0.02   0.01   0.01
  16   6    -0.03   0.01   0.00     0.01   0.02  -0.01    -0.01   0.02   0.00
  17   6     0.00   0.00  -0.00     0.00   0.01  -0.01     0.01   0.00   0.00
  18   6    -0.03   0.03   0.00     0.03   0.00  -0.00    -0.01   0.02  -0.00
  19   6    -0.06   0.01   0.03    -0.00   0.03   0.00    -0.01   0.03   0.01
  20   6    -0.01   0.02  -0.03    -0.02   0.04   0.00     0.00   0.01  -0.01
  21   6     0.02   0.02   0.02     0.00   0.01  -0.01     0.02  -0.00   0.00
  22   6    -0.00  -0.00  -0.00     0.01   0.01  -0.02     0.03   0.02   0.01
  23   6     0.00  -0.04  -0.01    -0.00  -0.02  -0.02     0.03   0.02  -0.00
  24   6    -0.01   0.02  -0.01     0.02   0.02   0.00     0.01  -0.00  -0.01
  25   1    -0.01   0.01   0.01     0.02  -0.00  -0.01    -0.01   0.01   0.00
  26   1    -0.01   0.01  -0.01     0.01  -0.00   0.01    -0.01   0.00  -0.01
  27   1    -0.01   0.05   0.03     0.00   0.03   0.02    -0.01   0.01   0.00
  28   1     0.01  -0.01  -0.03     0.01   0.00  -0.02    -0.01   0.01   0.01
  29   1    -0.06  -0.03   0.03    -0.02  -0.01   0.01     0.00   0.01   0.01
  30   1     0.01   0.01  -0.02     0.01   0.01  -0.02     0.03  -0.00  -0.03
  31   1    -0.01   0.01  -0.02    -0.02   0.04   0.01    -0.02   0.03  -0.01
  32   1     0.00   0.00  -0.00    -0.02  -0.01   0.02     0.00  -0.02   0.03
  33   1     0.01  -0.00   0.02    -0.00   0.01  -0.00     0.01  -0.00   0.00
  34   1     0.01   0.02   0.01     0.00  -0.00  -0.01     0.01   0.00   0.00
  35   1     0.02   0.02   0.02    -0.01  -0.01  -0.02     0.01   0.01   0.01
  36   1    -0.02  -0.03   0.01     0.02   0.02  -0.01     0.00  -0.00   0.01
  37   1    -0.00   0.02  -0.04     0.00  -0.00   0.02     0.01   0.01  -0.01
  38   1     0.02   0.02  -0.01     0.01   0.03  -0.01     0.00  -0.01  -0.00
  39   1     0.02  -0.05  -0.03     0.01  -0.04  -0.03     0.01   0.02   0.01
  40   1    -0.03  -0.03   0.03    -0.03  -0.02   0.02     0.02   0.01  -0.01
  41   1     0.00   0.00  -0.01     0.01   0.01   0.00     0.00  -0.00  -0.00
  42   1    -0.01   0.00  -0.01     0.01   0.01   0.00     0.00  -0.00  -0.00
  43   8     0.17   0.04  -0.16     0.02  -0.12   0.31    -0.24   0.02  -0.08
  44   6     0.05  -0.02  -0.13    -0.01  -0.09   0.22    -0.15   0.04  -0.09
  45   8     0.00  -0.15  -0.11    -0.10  -0.02   0.20    -0.19   0.03  -0.10
  46   6    -0.04   0.11  -0.03     0.10  -0.36   0.03     0.00   0.10  -0.07
  47   1    -0.02   0.07  -0.03     0.04  -0.17   0.03     0.01   0.02  -0.00
  48   1    -0.02   0.04  -0.00     0.04  -0.14   0.01     0.01   0.06  -0.05
  49   1    -0.02   0.02   0.03     0.04  -0.07  -0.08     0.02   0.03  -0.01
  50   8    -0.01  -0.27  -0.04     0.01   0.01   0.01    -0.04  -0.04  -0.04
  51   8    -0.08   0.11  -0.33    -0.18   0.17  -0.24     0.11   0.08   0.14
  52   6     0.08   0.06  -0.23    -0.01   0.19  -0.13     0.08   0.09   0.11
  53   8     0.26   0.07  -0.28     0.19   0.30  -0.11     0.11   0.17   0.18
  54   6     0.03  -0.10   0.18    -0.14  -0.06   0.15     0.00  -0.02  -0.08
  55   1    -0.09  -0.00   0.10    -0.12  -0.01   0.07     0.03  -0.04  -0.04
  56   1     0.02  -0.05   0.08    -0.07  -0.02   0.06    -0.05   0.01  -0.03
  57   1     0.08  -0.08   0.09     0.03  -0.08   0.07    -0.00  -0.02  -0.04
                     25                     26                     27
                        a                      a                      a 
 Frequencies --   254.5486               265.7549               268.5517
 Red. masses --    25.8775                18.8842                26.6255
 Frc consts  --     0.0000                 0.0000                 0.0000
 IR Inten    --    49.7027                12.3013                59.3206
 Raman Activ --     0.0000                 0.0000                 0.0000
 Depolar     --     0.0000                 0.0000                 0.0000
 Atom AN      X      Y      Z        X      Y      Z        X      Y      Z
   1  53    -0.04   0.25  -0.25    -0.07   0.09   0.27     0.10  -0.37  -0.08
   2   6    -0.13  -0.03   0.21    -0.01  -0.01  -0.16     0.05   0.03   0.08
   3   6    -0.05   0.06   0.22    -0.10  -0.13  -0.17     0.10   0.12   0.09
   4   6    -0.19  -0.09   0.10    -0.01  -0.02  -0.16     0.06   0.08   0.12
   5   6     0.06   0.08   0.08    -0.15  -0.17  -0.10     0.12   0.14   0.07
   6   1    -0.01   0.03   0.09    -0.04  -0.05  -0.08     0.03   0.05   0.04
   7   6    -0.10  -0.07  -0.05    -0.06  -0.06  -0.07     0.09   0.10   0.10
   8   1    -0.08  -0.05   0.03     0.01  -0.00  -0.05     0.02   0.04   0.03
   9   6     0.04  -0.01  -0.04    -0.14  -0.15  -0.06     0.14   0.14   0.09
  10   1     0.05   0.04   0.02    -0.05  -0.06  -0.03     0.03   0.04   0.02
  11   1    -0.04  -0.04  -0.04    -0.01  -0.01   0.01     0.02   0.02   0.01
  12   1     0.04  -0.00  -0.04    -0.05  -0.05  -0.00     0.04   0.04   0.02
  13   1    -0.01   0.02  -0.01     0.01   0.03   0.00    -0.00   0.02  -0.01
  14   8    -0.07  -0.01  -0.09    -0.05  -0.01  -0.08    -0.03  -0.04  -0.10
  15   7    -0.03   0.03  -0.05    -0.05   0.03  -0.05    -0.06   0.04  -0.07
  16   6     0.01   0.02  -0.01    -0.01   0.01   0.01    -0.03   0.02  -0.02
  17   6     0.01  -0.00  -0.01     0.00   0.00   0.00     0.03  -0.01  -0.01
  18   6     0.03   0.01  -0.01    -0.06   0.02  -0.01    -0.11   0.08  -0.05
  19   6     0.01   0.05   0.02    -0.12   0.00   0.10    -0.23   0.09   0.21
  20   6     0.04  -0.05   0.02     0.14  -0.13  -0.05     0.16  -0.14  -0.12
  21   6     0.01   0.00  -0.01     0.02   0.01   0.02     0.10   0.02   0.07
  22   6     0.06   0.02   0.05     0.08   0.06   0.06     0.06  -0.02   0.07
  23   6     0.01  -0.00  -0.02    -0.02   0.00   0.01     0.06   0.04  -0.01
  24   6     0.03   0.01  -0.01    -0.03   0.02  -0.06    -0.01   0.02  -0.10
  25   1     0.01   0.00  -0.01    -0.04   0.00   0.01    -0.07   0.04   0.02
  26   1     0.01   0.00  -0.00    -0.02   0.01  -0.02    -0.05   0.03  -0.06
  27   1    -0.03  -0.05  -0.05    -0.11  -0.10  -0.08    -0.16  -0.02  -0.03
  28   1    -0.05   0.04   0.08    -0.12   0.03   0.17    -0.15   0.05   0.19
  29   1     0.09   0.06  -0.01     0.09   0.07   0.01     0.05   0.05   0.09
  30   1     0.06  -0.04  -0.06    -0.11  -0.03   0.12     0.02  -0.07  -0.04
  31   1    -0.03   0.05   0.02     0.16  -0.22  -0.03     0.06  -0.09  -0.06
  32   1     0.01  -0.07   0.08     0.11   0.12  -0.15     0.11  -0.00  -0.03
  33   1     0.00   0.00  -0.00     0.02  -0.01   0.01     0.06  -0.04   0.06
  34   1     0.00  -0.00  -0.01     0.00   0.02   0.02     0.05   0.07   0.04
  35   1    -0.01  -0.01  -0.01     0.01   0.02   0.01     0.00  -0.03   0.00
  36   1     0.04   0.06   0.01     0.03   0.05   0.02     0.02   0.02   0.02
  37   1     0.03  -0.02   0.06     0.05  -0.00   0.04     0.02  -0.02   0.05
  38   1    -0.05  -0.11  -0.00    -0.07  -0.13   0.01    -0.05  -0.13  -0.00
  39   1    -0.05   0.10   0.06    -0.07   0.12   0.08    -0.04   0.15   0.11
  40   1     0.11   0.02  -0.07     0.12   0.03  -0.08     0.16   0.06  -0.11
  41   1     0.01   0.00  -0.00     0.01   0.00  -0.04     0.02  -0.01  -0.06
  42   1     0.01   0.01  -0.00    -0.03   0.01  -0.03    -0.03   0.01  -0.04
  43   8    -0.33  -0.18   0.14     0.14   0.06   0.03    -0.08   0.01  -0.05
  44   6    -0.10  -0.08   0.14     0.05   0.03   0.00    -0.05   0.01  -0.04
  45   8     0.04  -0.01   0.16    -0.01   0.03  -0.00    -0.05   0.02  -0.05
  46   6     0.09  -0.22   0.04    -0.02   0.02   0.00    -0.01   0.08  -0.00
  47   1     0.05  -0.13   0.05    -0.01   0.01  -0.01    -0.00   0.03   0.00
  48   1     0.04  -0.06  -0.01    -0.01  -0.01   0.01    -0.00   0.04  -0.01
  49   1     0.05  -0.04  -0.04    -0.01   0.00   0.00     0.00   0.02   0.02
  50   8    -0.02   0.16  -0.02    -0.10   0.19   0.08    -0.07   0.02  -0.02
  51   8     0.16  -0.07  -0.01     0.14  -0.01  -0.09    -0.13   0.06  -0.02
  52   6     0.12  -0.10  -0.02     0.16   0.00  -0.06    -0.11   0.06  -0.03
  53   8     0.14  -0.14  -0.06     0.25   0.05  -0.03    -0.13   0.04  -0.04
  54   6     0.17  -0.09   0.00     0.14  -0.09  -0.02    -0.13   0.05   0.05
  55   1     0.04  -0.02   0.00     0.03  -0.03  -0.00    -0.06   0.02   0.02
  56   1     0.06  -0.03   0.00     0.02  -0.02  -0.00    -0.03   0.01   0.02
  57   1     0.05  -0.02   0.00     0.06  -0.04  -0.00    -0.03   0.01   0.02
                     28                     29                     30
                        a                      a                      a 
 Frequencies --   273.8400               277.4164               282.0202
 Red. masses --    11.5608                20.0576                18.0815
 Frc consts  --     0.0000                 0.0000                 0.0000
 IR Inten    --    13.0667                53.6155                14.0879
 Raman Activ --     0.0000                 0.0000                 0.0000
 Depolar     --     0.0000                 0.0000                 0.0000
 Atom AN      X      Y      Z        X      Y      Z        X      Y      Z
   1  53     0.11  -0.07  -0.19    -0.20   0.23  -0.05     0.21   0.17  -0.06
   2   6    -0.04  -0.08   0.14     0.04   0.06  -0.05    -0.01  -0.03   0.03
   3   6     0.01  -0.01   0.15     0.02   0.04  -0.05    -0.01  -0.04   0.03
   4   6    -0.08  -0.12   0.08     0.06   0.08  -0.01    -0.03  -0.06  -0.01
   5   6     0.06   0.03   0.05     0.03   0.02  -0.01    -0.02  -0.02  -0.01
   6   1     0.00   0.01   0.06     0.00   0.01  -0.02    -0.00  -0.02   0.00
   7   6    -0.06  -0.06  -0.03     0.04   0.07   0.03    -0.02  -0.05  -0.04
   8   1    -0.04  -0.05   0.02     0.03   0.03  -0.00    -0.02  -0.02  -0.00
   9   6     0.00   0.02  -0.04     0.04   0.04   0.03    -0.04  -0.02  -0.04
  10   1     0.03   0.03   0.01     0.00  -0.01  -0.00    -0.00   0.01  -0.00
  11   1    -0.03  -0.02  -0.03     0.02   0.02   0.02    -0.01  -0.02  -0.01
  12   1     0.00   0.02  -0.03     0.01   0.01   0.02    -0.01  -0.00  -0.02
  13   1     0.00   0.04   0.02    -0.01  -0.05  -0.01    -0.00  -0.04   0.00
  14   8    -0.03  -0.08  -0.06    -0.02   0.02   0.09     0.03   0.12   0.17
  15   7     0.03  -0.01   0.05    -0.00  -0.06   0.03     0.03  -0.03   0.07
  16   6    -0.01  -0.01   0.01    -0.04  -0.03  -0.02     0.05  -0.04   0.11
  17   6     0.00   0.02   0.04     0.02  -0.02  -0.02     0.02   0.01  -0.00
  18   6    -0.01  -0.05   0.00    -0.16   0.15   0.01     0.00   0.03   0.09
  19   6     0.05  -0.04  -0.07    -0.15  -0.05   0.05    -0.10  -0.25   0.02
  20   6    -0.03   0.02   0.00     0.11  -0.06  -0.19     0.11  -0.00  -0.02
  21   6    -0.02  -0.05  -0.03     0.12   0.04   0.11    -0.01   0.13   0.04
  22   6    -0.03   0.01  -0.01    -0.10  -0.13  -0.06     0.11   0.18  -0.15
  23   6     0.07   0.18   0.06     0.21   0.18  -0.07    -0.13  -0.25  -0.01
  24   6    -0.00  -0.11   0.08     0.02  -0.04   0.08    -0.07   0.27  -0.21
  25   1     0.00  -0.01  -0.00    -0.09   0.10   0.07    -0.03  -0.05   0.01
  26   1    -0.01  -0.02   0.00    -0.08   0.07  -0.08     0.03   0.02   0.04
  27   1     0.04   0.00   0.01    -0.05   0.10   0.06    -0.06  -0.11  -0.04
  28   1     0.04  -0.02  -0.06     0.01  -0.05  -0.04    -0.03  -0.12   0.06
  29   1    -0.03  -0.02  -0.03    -0.14  -0.08   0.07    -0.03  -0.04  -0.04
  30   1    -0.28   0.08   0.30    -0.04  -0.00   0.02    -0.04   0.02   0.08
  31   1     0.23  -0.32  -0.00     0.09  -0.14  -0.09     0.09  -0.11  -0.03
  32   1     0.03   0.29  -0.33     0.09   0.09  -0.14     0.06   0.10  -0.10
  33   1    -0.01   0.00  -0.03     0.06  -0.04   0.08     0.01   0.01   0.04
  34   1    -0.01  -0.04  -0.02     0.08   0.07   0.03    -0.02   0.08   0.05
  35   1    -0.04  -0.01  -0.03     0.04  -0.02   0.04    -0.00   0.11  -0.04
  36   1     0.02   0.03  -0.02    -0.08  -0.14   0.00     0.06   0.04  -0.07
  37   1    -0.01  -0.01   0.04    -0.07   0.02  -0.11     0.06   0.05  -0.08
  38   1     0.08   0.18   0.02     0.10   0.15  -0.05    -0.06  -0.11  -0.02
  39   1     0.09  -0.05  -0.02     0.15  -0.01  -0.00    -0.08  -0.07  -0.05
  40   1    -0.10   0.05   0.06    -0.01   0.07  -0.02    -0.00  -0.12   0.05
  41   1    -0.03  -0.05   0.04    -0.02  -0.06   0.02     0.07   0.13  -0.12
  42   1     0.04  -0.04   0.04     0.03  -0.02   0.04    -0.13   0.10  -0.13
  43   8    -0.02   0.01   0.03    -0.02  -0.04   0.07    -0.07  -0.05   0.04
  44   6    -0.01   0.01   0.02    -0.01  -0.04   0.06    -0.05  -0.05   0.04
  45   8    -0.01   0.02   0.02    -0.02  -0.05   0.07    -0.07  -0.06   0.04
  46   6     0.01  -0.02  -0.00     0.03  -0.11   0.01     0.04  -0.08   0.01
  47   1     0.01  -0.02   0.00     0.01  -0.05   0.01     0.02  -0.05   0.02
  48   1     0.01  -0.01  -0.00     0.01  -0.04   0.00     0.02  -0.02  -0.01
  49   1     0.01  -0.00  -0.01     0.01  -0.02  -0.02     0.02  -0.02  -0.01
  50   8     0.07   0.27   0.06     0.02  -0.36  -0.13     0.13  -0.22  -0.06
  51   8    -0.06   0.07  -0.00     0.11  -0.09   0.07    -0.11  -0.01   0.05
  52   6    -0.05   0.06   0.00     0.06  -0.10   0.05    -0.12  -0.00   0.04
  53   8    -0.05   0.07  -0.00     0.03  -0.13   0.04    -0.16  -0.01   0.03
  54   6    -0.09   0.02   0.03     0.12  -0.03  -0.05    -0.10   0.07   0.02
  55   1    -0.04   0.00   0.01     0.06  -0.01  -0.03    -0.02   0.02   0.00
  56   1    -0.04   0.01   0.01     0.05  -0.01  -0.02    -0.02   0.02   0.00
  57   1    -0.01  -0.01   0.01     0.01   0.02  -0.02    -0.04   0.03   0.00
                     31                     32                     33
                        a                      a                      a 
 Frequencies --   289.3283               300.2292               310.9298
 Red. masses --    47.3816                11.2818                 8.5015
 Frc consts  --     0.0000                 0.0000                 0.0000
 IR Inten    --    80.2452                28.0888                 9.2595
 Raman Activ --     0.0000                 0.0000                 0.0000
 Depolar     --     0.0000                 0.0000                 0.0000
 Atom AN      X      Y      Z        X      Y      Z        X      Y      Z
   1  53     0.49   0.23   0.15    -0.13   0.06  -0.05    -0.03  -0.07  -0.02
   2   6    -0.04  -0.06  -0.01    -0.03  -0.01   0.01    -0.03  -0.02   0.01
   3   6    -0.10  -0.13  -0.02    -0.02  -0.02   0.01    -0.01  -0.02   0.02
   4   6    -0.09  -0.12  -0.10    -0.03  -0.03   0.00    -0.03  -0.03   0.00
   5   6    -0.13  -0.11  -0.05    -0.01  -0.02   0.00    -0.02  -0.01   0.00
   6   1    -0.03  -0.05  -0.02     0.00  -0.01   0.01     0.00  -0.00   0.01
   7   6    -0.09  -0.14  -0.11    -0.03  -0.03  -0.01    -0.02  -0.03  -0.01
   8   1    -0.05  -0.04  -0.03    -0.01  -0.01   0.00    -0.01  -0.01   0.00
   9   6    -0.14  -0.16  -0.11    -0.02  -0.02  -0.01    -0.02  -0.02  -0.01
  10   1    -0.03  -0.02  -0.02     0.00  -0.00   0.00    -0.00  -0.00   0.00
  11   1    -0.02  -0.04  -0.02    -0.01  -0.01  -0.00    -0.01  -0.01  -0.00
  12   1    -0.04  -0.04  -0.04    -0.00  -0.00  -0.01    -0.00  -0.00  -0.01
  13   1     0.01  -0.01  -0.00     0.02   0.01   0.03     0.01   0.01   0.00
  14   8     0.03  -0.05  -0.04     0.06  -0.18  -0.04     0.05   0.02   0.02
  15   7    -0.02  -0.02  -0.05     0.13  -0.10   0.09     0.04  -0.05  -0.02
  16   6    -0.03  -0.00  -0.08     0.05  -0.04  -0.03     0.04  -0.08   0.06
  17   6    -0.02  -0.03  -0.02     0.08  -0.09   0.12    -0.03   0.05  -0.10
  18   6    -0.07   0.06  -0.05     0.03  -0.12  -0.12    -0.09   0.16   0.12
  19   6    -0.06   0.11   0.07    -0.09   0.02   0.15    -0.08  -0.26   0.00
  20   6     0.04  -0.07  -0.11     0.00   0.14  -0.16     0.02  -0.13   0.12
  21   6     0.04  -0.03   0.03     0.05  -0.08   0.08     0.09   0.19   0.10
  22   6    -0.08  -0.12   0.05    -0.05  -0.15  -0.09    -0.18  -0.09  -0.20
  23   6     0.08   0.13  -0.02    -0.03   0.19   0.31     0.12  -0.03  -0.24
  24   6     0.02  -0.10   0.09    -0.06   0.10  -0.36     0.00   0.12   0.11
  25   1    -0.03   0.06   0.02    -0.00  -0.10  -0.06    -0.07   0.08   0.09
  26   1    -0.04   0.03  -0.06     0.03  -0.04   0.01    -0.04   0.09  -0.04
  27   1    -0.02   0.10   0.05    -0.04   0.11   0.07    -0.03  -0.03   0.01
  28   1    -0.01   0.04  -0.01    -0.01   0.02   0.00     0.02  -0.15  -0.02
  29   1    -0.04  -0.01   0.08    -0.07  -0.06   0.12    -0.10  -0.10  -0.01
  30   1     0.09  -0.05  -0.13     0.09   0.07  -0.10     0.05  -0.07  -0.04
  31   1    -0.06   0.06  -0.04    -0.08   0.11  -0.08    -0.04   0.05   0.05
  32   1     0.03  -0.10   0.07    -0.02  -0.01   0.00    -0.01  -0.11   0.12
  33   1     0.02  -0.02   0.02     0.06  -0.06   0.04     0.04   0.00   0.10
  34   1     0.03   0.01  -0.00    -0.01   0.04   0.08     0.08   0.12   0.03
  35   1     0.03  -0.03   0.05    -0.09  -0.09  -0.10    -0.21  -0.15  -0.24
  36   1    -0.06  -0.07   0.04     0.06  -0.00  -0.08     0.11   0.13  -0.15
  37   1    -0.04  -0.01  -0.02    -0.05  -0.06   0.07    -0.09  -0.10   0.20
  38   1     0.03   0.05  -0.01     0.04   0.12   0.14     0.04   0.04  -0.14
  39   1     0.06   0.04   0.03     0.01   0.03   0.08     0.09  -0.06  -0.08
  40   1     0.01   0.07  -0.04    -0.11   0.09   0.08     0.03  -0.03  -0.03
  41   1    -0.03  -0.07   0.04     0.10   0.07  -0.19    -0.01   0.02   0.03
  42   1     0.05  -0.04   0.05    -0.15   0.09  -0.17     0.01   0.01   0.02
  43   8    -0.11  -0.05   0.02     0.07   0.02   0.01     0.05   0.02  -0.02
  44   6    -0.05  -0.03   0.02     0.05   0.02   0.01     0.02   0.02  -0.02
  45   8    -0.00  -0.02   0.03     0.05   0.02   0.01     0.01   0.02  -0.03
  46   6     0.04  -0.04   0.01    -0.01   0.00   0.01    -0.02   0.05   0.00
  47   1     0.02  -0.03   0.02    -0.01   0.01  -0.01    -0.01   0.03  -0.01
  48   1     0.02  -0.00  -0.01    -0.01  -0.01   0.01    -0.01   0.02   0.01
  49   1     0.02  -0.01  -0.01    -0.01   0.00   0.00    -0.01   0.01   0.02
  50   8     0.03   0.04   0.01     0.17   0.13   0.11     0.05   0.30   0.14
  51   8    -0.20   0.01  -0.04     0.03  -0.00   0.01     0.03   0.03  -0.01
  52   6    -0.17   0.04  -0.03     0.02  -0.01   0.01     0.04   0.03  -0.00
  53   8    -0.18   0.06  -0.03     0.02  -0.00   0.02     0.05   0.04   0.01
  54   6    -0.17   0.10   0.06     0.02  -0.02  -0.01     0.01  -0.03  -0.00
  55   1    -0.07   0.04   0.03     0.01  -0.01  -0.00    -0.00  -0.01  -0.00
  56   1    -0.03   0.02   0.02     0.00  -0.00  -0.00    -0.01  -0.01   0.00
  57   1    -0.04   0.03   0.03     0.01  -0.01  -0.00     0.01  -0.02  -0.00
                     34                     35                     36
                        a                      a                      a 
 Frequencies --   323.5784               332.2079               361.1127
 Red. masses --     6.0875                12.3329                 9.6651
 Frc consts  --     0.0000                 0.0000                 0.0000
 IR Inten    --     6.1505                20.6132                 3.5112
 Raman Activ --     0.0000                 0.0000                 0.0000
 Depolar     --     0.0000                 0.0000                 0.0000
 Atom AN      X      Y      Z        X      Y      Z        X      Y      Z
   1  53     0.01   0.09   0.00     0.08   0.10   0.13     0.05   0.01  -0.03
   2   6     0.01   0.02  -0.02     0.04   0.01  -0.01    -0.00  -0.00   0.00
   3   6     0.00  -0.00  -0.02     0.01  -0.00  -0.02    -0.02   0.01  -0.00
   4   6     0.02   0.01  -0.01     0.04   0.01  -0.02     0.00  -0.02  -0.00
   5   6    -0.00  -0.00  -0.01     0.01  -0.01  -0.01     0.00  -0.02  -0.00
   6   1     0.00  -0.01  -0.01    -0.01  -0.00  -0.02    -0.01   0.01  -0.00
   7   6     0.01   0.01   0.00     0.01   0.03  -0.01    -0.02   0.00  -0.01
   8   1     0.01   0.00  -0.00     0.01   0.00  -0.01     0.00  -0.01   0.00
   9   6    -0.01   0.01   0.00    -0.00   0.01  -0.01    -0.01  -0.01  -0.01
  10   1    -0.00  -0.00  -0.00     0.00  -0.00  -0.00     0.01  -0.01   0.00
  11   1     0.01   0.00   0.00     0.00   0.01   0.00    -0.01   0.01  -0.00
  12   1    -0.00   0.00   0.00    -0.01   0.00   0.00    -0.00  -0.00  -0.00
  13   1    -0.01  -0.03   0.04    -0.01  -0.00  -0.03    -0.02  -0.02   0.03
  14   8    -0.00  -0.05   0.13     0.07   0.03  -0.13    -0.23  -0.19   0.04
  15   7    -0.07  -0.02   0.09     0.03   0.10  -0.13    -0.14  -0.12   0.13
  16   6    -0.07   0.05  -0.02     0.02   0.05  -0.02    -0.02   0.06   0.16
  17   6    -0.01  -0.01   0.01     0.02   0.02  -0.06    -0.05  -0.20  -0.00
  18   6    -0.08   0.04  -0.03     0.16  -0.11  -0.03    -0.06   0.09   0.14
  19   6     0.00   0.16   0.02     0.01   0.09   0.02     0.13   0.21   0.18
  20   6     0.08   0.01  -0.16    -0.23   0.11   0.25    -0.07   0.31  -0.00
  21   6    -0.15  -0.10  -0.15     0.17   0.05   0.06    -0.05  -0.14   0.03
  22   6     0.12   0.11   0.04    -0.21  -0.27   0.02    -0.04  -0.08  -0.33
  23   6    -0.03  -0.03   0.02    -0.01   0.00  -0.05     0.20  -0.20  -0.17
  24   6    -0.02  -0.11   0.08     0.08   0.02  -0.08     0.08   0.03   0.01
  25   1    -0.02   0.05   0.01     0.08  -0.08  -0.07    -0.03   0.05   0.07
  26   1    -0.06   0.00  -0.04     0.08  -0.05   0.07    -0.06   0.01   0.00
  27   1     0.01   0.05   0.01    -0.02  -0.04  -0.04     0.05  -0.02   0.02
  28   1    -0.01   0.08  -0.00    -0.04   0.05   0.07    -0.02   0.13   0.09
  29   1     0.02   0.04   0.03     0.08   0.07  -0.02     0.14   0.11   0.04
  30   1     0.03  -0.00  -0.06    -0.18   0.06   0.20     0.01   0.17   0.05
  31   1     0.01  -0.03  -0.08     0.05  -0.03   0.13    -0.04   0.07  -0.04
  32   1     0.07   0.03  -0.04    -0.13   0.09  -0.06    -0.05   0.11  -0.06
  33   1    -0.09   0.05  -0.11     0.08  -0.04   0.06    -0.06  -0.02   0.03
  34   1    -0.08  -0.13  -0.08     0.08   0.09   0.03    -0.02  -0.06  -0.00
  35   1    -0.24  -0.12  -0.26    -0.14  -0.23  -0.12    -0.03   0.06  -0.07
  36   1     0.28   0.37  -0.10     0.03   0.03  -0.04     0.01  -0.10  -0.14
  37   1     0.09  -0.14   0.41    -0.14  -0.12   0.22    -0.02   0.01  -0.18
  38   1    -0.00  -0.00   0.02    -0.03  -0.05  -0.01     0.01  -0.11  -0.12
  39   1    -0.01  -0.02  -0.01    -0.03   0.05   0.02     0.08  -0.00   0.04
  40   1    -0.02  -0.02   0.03     0.05   0.01  -0.05     0.17  -0.04  -0.11
  41   1    -0.06  -0.05   0.06     0.06   0.02  -0.05     0.06   0.02  -0.03
  42   1     0.05  -0.05   0.06    -0.01   0.02  -0.04    -0.02   0.03  -0.02
  43   8     0.04  -0.00   0.01    -0.11  -0.03  -0.02     0.06   0.03   0.01
  44   6     0.02  -0.01  -0.01    -0.05  -0.01  -0.01     0.04   0.02  -0.00
  45   8     0.00  -0.02  -0.01     0.00  -0.01   0.00     0.04   0.01   0.00
  46   6    -0.00   0.00   0.00     0.01  -0.01  -0.02    -0.00   0.00  -0.01
  47   1    -0.00   0.01  -0.00     0.01  -0.02   0.01    -0.01   0.00  -0.01
  48   1    -0.00  -0.00   0.00     0.01   0.01  -0.02    -0.00  -0.01   0.01
  49   1    -0.00  -0.00   0.01     0.01  -0.00  -0.01    -0.01   0.00  -0.01
  50   8     0.12  -0.28  -0.01    -0.15  -0.29  -0.14     0.01   0.05   0.02
  51   8    -0.00  -0.01   0.02    -0.03  -0.02   0.00     0.00   0.00  -0.00
  52   6    -0.01  -0.02   0.02    -0.03  -0.02  -0.01    -0.00   0.01  -0.00
  53   8    -0.03  -0.03   0.02    -0.03  -0.03  -0.01    -0.00   0.01   0.00
  54   6     0.00   0.01   0.00    -0.01   0.03  -0.00    -0.01  -0.00   0.01
  55   1     0.01   0.00  -0.00    -0.00   0.01   0.00    -0.01  -0.00   0.00
  56   1     0.01   0.00  -0.00     0.01   0.00  -0.00    -0.01  -0.00   0.00
  57   1    -0.01   0.01  -0.00    -0.01   0.02   0.00     0.00  -0.01   0.00
                     37                     38                     39
                        a                      a                      a 
 Frequencies --   373.7964               380.6339               390.2373
 Red. masses --    13.3398                 9.1303                12.0645
 Frc consts  --     0.0000                 0.0000                 0.0000
 IR Inten    --    36.4578                 2.6175                76.8196
 Raman Activ --     0.0000                 0.0000                 0.0000
 Depolar     --     0.0000                 0.0000                 0.0000
 Atom AN      X      Y      Z        X      Y      Z        X      Y      Z
   1  53     0.07   0.02   0.11     0.02  -0.01   0.01    -0.13   0.05   0.00
   2   6     0.03   0.00  -0.01    -0.05   0.05   0.00    -0.02   0.01   0.01
   3   6    -0.04   0.04  -0.02     0.30  -0.28   0.05     0.03  -0.03   0.01
   4   6     0.05  -0.02  -0.01    -0.33   0.34  -0.05    -0.04   0.02  -0.00
   5   6     0.03  -0.03  -0.00    -0.26   0.28  -0.04    -0.02   0.02   0.00
   6   1    -0.03   0.03  -0.01     0.19  -0.19   0.03     0.02  -0.02   0.01
   7   6    -0.02   0.05  -0.01     0.27  -0.26   0.04     0.02  -0.04   0.00
   8   1     0.02  -0.01  -0.00    -0.18   0.19  -0.03    -0.02   0.01  -0.00
   9   6     0.01  -0.00   0.00     0.01   0.01   0.00    -0.01   0.01  -0.00
  10   1     0.02  -0.02   0.00    -0.17   0.17  -0.02    -0.01   0.01  -0.00
  11   1    -0.02   0.03  -0.00     0.18  -0.18   0.03     0.02  -0.02   0.00
  12   1     0.00  -0.00   0.00     0.01  -0.00   0.00    -0.00   0.00  -0.00
  13   1     0.01   0.01  -0.03    -0.00   0.00  -0.01     0.02  -0.01   0.02
  14   8    -0.18  -0.39  -0.37    -0.06  -0.02  -0.04     0.22  -0.29  -0.22
  15   7    -0.04  -0.03  -0.01    -0.02   0.00   0.00     0.17  -0.02  -0.04
  16   6     0.01  -0.03  -0.02    -0.01  -0.01   0.02     0.14   0.08  -0.09
  17   6    -0.03  -0.03   0.13    -0.01  -0.00   0.02     0.08  -0.02  -0.03
  18   6     0.04   0.01   0.05    -0.00  -0.03   0.02    -0.01   0.24  -0.14
  19   6    -0.02  -0.13  -0.08     0.03  -0.02  -0.02    -0.21   0.01   0.13
  20   6    -0.08  -0.07   0.12    -0.01   0.01   0.00    -0.08   0.03   0.27
  21   6    -0.06   0.01   0.15     0.00  -0.01   0.03    -0.09   0.03  -0.16
  22   6     0.20   0.29  -0.06     0.01   0.03  -0.01     0.08  -0.04  -0.06
  23   6     0.19   0.16   0.07     0.03   0.02   0.00    -0.07  -0.10   0.04
  24   6    -0.06   0.11   0.06    -0.01  -0.00  -0.01     0.08   0.05   0.07
  25   1     0.02  -0.02  -0.01     0.00  -0.02  -0.00    -0.06   0.14   0.04
  26   1     0.04   0.02   0.04     0.00  -0.01   0.02    -0.04   0.10  -0.14
  27   1     0.01  -0.01  -0.00     0.02  -0.01   0.00    -0.17   0.06  -0.02
  28   1     0.03  -0.07  -0.05     0.01  -0.01  -0.02    -0.08  -0.05   0.12
  29   1    -0.07  -0.05  -0.03     0.00   0.00  -0.02    -0.06  -0.03   0.09
  30   1    -0.01  -0.04   0.00    -0.00   0.01   0.01    -0.10  -0.01   0.12
  31   1    -0.03   0.03   0.07     0.00  -0.01  -0.01     0.05   0.03   0.16
  32   1    -0.05  -0.07   0.07    -0.00   0.02  -0.01    -0.09  -0.01   0.04
  33   1    -0.01  -0.01   0.06     0.01  -0.01   0.02    -0.09   0.09  -0.10
  34   1    -0.02   0.02   0.06     0.00   0.01   0.01    -0.08  -0.10  -0.07
  35   1    -0.04   0.16  -0.05    -0.01   0.01  -0.01     0.07   0.02   0.03
  36   1     0.13   0.14  -0.06     0.02   0.02  -0.01    -0.02  -0.07   0.00
  37   1     0.14   0.04  -0.01     0.01   0.00   0.01     0.02   0.02  -0.09
  38   1     0.09   0.13  -0.02     0.01   0.02  -0.01    -0.03  -0.07   0.05
  39   1     0.15  -0.00   0.06     0.03   0.00   0.01    -0.08  -0.01  -0.02
  40   1     0.01   0.07   0.01     0.01   0.01  -0.00    -0.01  -0.04   0.03
  41   1     0.01   0.05  -0.01     0.01   0.01  -0.01    -0.06  -0.03   0.07
  42   1    -0.05   0.06   0.01    -0.02   0.00  -0.01     0.11   0.00   0.08
  43   8    -0.04   0.03  -0.01     0.03  -0.01   0.00    -0.01   0.02  -0.01
  44   6     0.01   0.03  -0.01     0.02  -0.00   0.00     0.02   0.02  -0.00
  45   8     0.06   0.02   0.01     0.04   0.01   0.00     0.04   0.01   0.01
  46   6     0.00  -0.00  -0.04     0.00   0.00   0.01    -0.00  -0.00  -0.02
  47   1     0.00  -0.01  -0.01    -0.00   0.01  -0.00    -0.00  -0.00  -0.01
  48   1     0.00  -0.01  -0.01    -0.00  -0.00   0.01    -0.00  -0.01   0.00
  49   1     0.00   0.01  -0.03    -0.00  -0.00   0.01    -0.00   0.00  -0.02
  50   8    -0.25  -0.14  -0.16    -0.08  -0.01  -0.03     0.31  -0.09   0.09
  51   8    -0.02  -0.02  -0.01     0.02  -0.02  -0.00    -0.02  -0.01   0.01
  52   6    -0.03  -0.02  -0.03    -0.00  -0.02  -0.02    -0.03  -0.03   0.01
  53   8    -0.01  -0.02  -0.03    -0.02  -0.04  -0.02    -0.03  -0.02   0.01
  54   6    -0.00   0.02   0.00     0.01  -0.01   0.01    -0.01   0.01   0.00
  55   1    -0.00   0.02   0.00    -0.00   0.00   0.01     0.00   0.01  -0.00
  56   1     0.02   0.00   0.00     0.01  -0.01   0.00     0.01   0.00  -0.00
  57   1    -0.01   0.02   0.00     0.01  -0.00   0.01    -0.01   0.01   0.00
                     40                     41                     42
                        a                      a                      a 
 Frequencies --   417.6955               425.2148               442.6452
 Red. masses --    11.1469                10.3173                10.4026
 Frc consts  --     0.0000                 0.0000                 0.0000
 IR Inten    --    27.7642                 8.4924                16.0332
 Raman Activ --     0.0000                 0.0000                 0.0000
 Depolar     --     0.0000                 0.0000                 0.0000
 Atom AN      X      Y      Z        X      Y      Z        X      Y      Z
   1  53     0.09  -0.02   0.06    -0.05   0.03  -0.01     0.05  -0.02   0.00
   2   6     0.03  -0.01   0.00    -0.04   0.04  -0.01    -0.48   0.46  -0.08
   3   6    -0.02   0.02  -0.00    -0.00   0.00  -0.00     0.04  -0.02  -0.00
   4   6     0.01   0.00  -0.00     0.01  -0.01   0.00     0.07  -0.07   0.03
   5   6    -0.00   0.01  -0.00     0.02  -0.02   0.00     0.21  -0.18   0.02
   6   1    -0.01   0.01  -0.00     0.01  -0.01   0.00     0.09  -0.08   0.01
   7   6    -0.01   0.02  -0.01     0.01  -0.02   0.00     0.18  -0.17   0.04
   8   1     0.00   0.00  -0.00     0.01  -0.01   0.00     0.11  -0.10   0.02
   9   6     0.02  -0.01  -0.00    -0.03   0.02  -0.00    -0.26   0.29  -0.03
  10   1    -0.00   0.00  -0.00     0.02  -0.02   0.00     0.17  -0.17   0.02
  11   1    -0.01   0.01  -0.00     0.01  -0.01   0.00     0.15  -0.15   0.03
  12   1     0.01  -0.01   0.00    -0.01   0.01  -0.00    -0.14   0.14  -0.02
  13   1    -0.00   0.03  -0.06     0.01  -0.03   0.02    -0.00   0.01  -0.01
  14   8    -0.09   0.09  -0.09     0.00  -0.31  -0.16     0.00   0.03  -0.00
  15   7     0.05   0.02  -0.00    -0.02  -0.03   0.01     0.00   0.01  -0.00
  16   6     0.19  -0.04   0.21     0.09  -0.05   0.15    -0.00   0.00  -0.00
  17   6     0.10   0.01  -0.02    -0.21   0.18  -0.14     0.02  -0.01   0.02
  18   6    -0.16   0.12   0.02    -0.09  -0.11   0.01    -0.00   0.01  -0.00
  19   6     0.10  -0.27   0.11     0.14  -0.09   0.12    -0.01  -0.00  -0.01
  20   6     0.15   0.24   0.05     0.05   0.21  -0.02     0.00  -0.01   0.01
  21   6    -0.01  -0.07  -0.21     0.15   0.02   0.00    -0.01  -0.01  -0.00
  22   6     0.03  -0.13   0.05    -0.07   0.22   0.28     0.00  -0.02  -0.02
  23   6    -0.10   0.05   0.13    -0.16   0.07  -0.28     0.02  -0.01   0.03
  24   6     0.09  -0.05  -0.11    -0.02  -0.15  -0.09    -0.00   0.01   0.00
  25   1    -0.16   0.12   0.15    -0.07  -0.02   0.04    -0.00   0.00  -0.00
  26   1    -0.15   0.07  -0.17    -0.05  -0.03  -0.04    -0.00   0.00  -0.00
  27   1     0.01  -0.06   0.03     0.05  -0.05   0.03    -0.00  -0.00  -0.00
  28   1     0.06  -0.15   0.04     0.04  -0.03   0.04    -0.00  -0.00  -0.00
  29   1    -0.04  -0.08  -0.01     0.04  -0.01   0.01    -0.00  -0.00  -0.00
  30   1     0.11   0.13   0.02     0.08   0.13   0.01    -0.01  -0.00   0.01
  31   1    -0.02   0.09  -0.03    -0.04   0.07  -0.06     0.01  -0.01   0.00
  32   1     0.01   0.06  -0.00    -0.01   0.07  -0.03     0.00   0.00  -0.00
  33   1    -0.05   0.06  -0.13     0.12  -0.10   0.08    -0.01   0.01  -0.01
  34   1    -0.05  -0.12  -0.08     0.14   0.14   0.00    -0.01  -0.02  -0.00
  35   1     0.01  -0.09  -0.01     0.05   0.02   0.11    -0.01   0.00  -0.01
  36   1     0.01  -0.02   0.02    -0.10   0.13   0.16     0.01  -0.01  -0.02
  37   1    -0.03  -0.04   0.06     0.04   0.03   0.10    -0.01   0.00  -0.01
  38   1    -0.01   0.02   0.10    -0.06   0.02  -0.13     0.01  -0.00   0.01
  39   1    -0.06   0.00  -0.01    -0.03  -0.00  -0.09     0.01  -0.00   0.01
  40   1    -0.09   0.01   0.06    -0.02  -0.01  -0.04     0.00   0.00   0.01
  41   1     0.01  -0.03  -0.02     0.00  -0.06  -0.05    -0.00   0.00   0.00
  42   1     0.03  -0.03  -0.04    -0.01  -0.05  -0.04    -0.00   0.00   0.00
  43   8    -0.04  -0.00  -0.01     0.01   0.01   0.01     0.02  -0.09   0.04
  44   6    -0.04  -0.01   0.01     0.03   0.01  -0.00     0.04  -0.06   0.00
  45   8    -0.01  -0.01   0.02     0.02   0.02  -0.00     0.00   0.05  -0.04
  46   6     0.01  -0.01  -0.00    -0.01   0.00  -0.00    -0.01  -0.00   0.07
  47   1     0.01  -0.02   0.01    -0.01   0.01  -0.01    -0.01   0.03   0.00
  48   1     0.01   0.00  -0.01    -0.00  -0.01   0.01    -0.01   0.01   0.03
  49   1     0.01  -0.00  -0.01    -0.01   0.00  -0.00    -0.01  -0.01   0.06
  50   8    -0.42   0.06  -0.21     0.23  -0.09   0.10    -0.06   0.02  -0.02
  51   8    -0.01   0.01  -0.01    -0.01  -0.01  -0.00    -0.07  -0.00  -0.03
  52   6    -0.00   0.00  -0.02    -0.02  -0.02  -0.00    -0.02  -0.05  -0.01
  53   8     0.02  -0.00  -0.03    -0.02  -0.00   0.01     0.05  -0.03  -0.01
  54   6    -0.00   0.01  -0.01    -0.00   0.00   0.01     0.02   0.02  -0.02
  55   1     0.00   0.00  -0.00    -0.00   0.01   0.00     0.02   0.01  -0.01
  56   1     0.00   0.00  -0.00     0.01  -0.00   0.00     0.03   0.00  -0.01
  57   1    -0.00   0.01  -0.00    -0.00   0.01   0.01    -0.02   0.03  -0.01
                     43                     44                     45
                        a                      a                      a 
 Frequencies --   459.3037               469.8682               472.6874
 Red. masses --    13.2630                 9.2158                10.6639
 Frc consts  --     0.0000                 0.0000                 0.0000
 IR Inten    --    22.1597                 1.5037                 5.7889
 Raman Activ --     0.0000                 0.0000                 0.0000
 Depolar     --     0.0000                 0.0000                 0.0000
 Atom AN      X      Y      Z        X      Y      Z        X      Y      Z
   1  53     0.00   0.06  -0.06    -0.02  -0.00  -0.00    -0.04   0.04   0.02
   2   6    -0.02   0.01  -0.02    -0.01   0.00   0.00     0.03  -0.02   0.01
   3   6    -0.01   0.00  -0.02     0.01  -0.00   0.00    -0.01   0.01   0.00
   4   6     0.03  -0.01  -0.00    -0.00   0.00   0.00     0.01  -0.01   0.00
   5   6     0.01  -0.02  -0.01     0.01  -0.00  -0.00    -0.01   0.01  -0.00
   6   1    -0.00  -0.00  -0.01     0.00  -0.00  -0.00    -0.01   0.00  -0.00
   7   6     0.01  -0.00  -0.00     0.01  -0.00   0.00    -0.01   0.01  -0.00
   8   1     0.02  -0.00  -0.00    -0.00   0.00   0.00    -0.00  -0.00   0.00
   9   6    -0.02   0.01  -0.01    -0.00   0.01  -0.00     0.02  -0.01  -0.00
  10   1     0.01  -0.01  -0.00     0.00   0.00  -0.00    -0.01   0.01  -0.00
  11   1     0.01  -0.00   0.00     0.00  -0.00  -0.00    -0.01   0.01  -0.00
  12   1    -0.01   0.01  -0.00    -0.00   0.00  -0.00     0.01  -0.01   0.00
  13   1    -0.01  -0.01   0.01    -0.00  -0.02  -0.03     0.02   0.03  -0.05
  14   8    -0.08  -0.03   0.02     0.07   0.03  -0.02     0.25   0.10  -0.17
  15   7    -0.05   0.00   0.01     0.05  -0.17  -0.15     0.24   0.12  -0.09
  16   6    -0.00   0.05   0.01    -0.08  -0.31  -0.03     0.11  -0.10  -0.00
  17   6    -0.01  -0.02  -0.01     0.13  -0.11  -0.21     0.05   0.11   0.18
  18   6     0.03   0.04   0.00    -0.08   0.03   0.22    -0.11  -0.16  -0.15
  19   6    -0.04  -0.02  -0.05     0.15   0.02   0.16     0.11  -0.02   0.14
  20   6     0.02  -0.01   0.05    -0.29  -0.04  -0.17     0.04   0.11  -0.09
  21   6     0.02  -0.04  -0.03     0.01   0.28  -0.02    -0.13   0.09   0.11
  22   6     0.01  -0.02   0.02     0.31  -0.11   0.00    -0.11   0.10  -0.11
  23   6    -0.02   0.03   0.01    -0.11   0.09  -0.01     0.17  -0.16   0.06
  24   6     0.09   0.02  -0.04    -0.09   0.16   0.15    -0.39  -0.15   0.12
  25   1     0.01   0.02   0.00    -0.04   0.02   0.08    -0.05  -0.08  -0.05
  26   1    -0.01  -0.00  -0.00     0.02   0.07   0.02     0.03  -0.01  -0.03
  27   1    -0.01  -0.00  -0.01     0.09   0.00   0.08     0.01  -0.01   0.02
  28   1     0.00  -0.03  -0.01    -0.01   0.15  -0.00     0.00   0.02   0.07
  29   1    -0.03  -0.00  -0.03     0.14   0.00   0.11     0.08  -0.01   0.06
  30   1    -0.01  -0.02   0.01    -0.05   0.08   0.02     0.06   0.09  -0.00
  31   1     0.02  -0.00   0.03    -0.10  -0.01  -0.07    -0.03   0.03  -0.07
  32   1     0.01  -0.01   0.02    -0.15   0.00  -0.12    -0.00   0.04  -0.05
  33   1    -0.01   0.00  -0.01    -0.00   0.05   0.05     0.04  -0.00  -0.02
  34   1     0.01  -0.02  -0.02     0.01   0.11   0.01    -0.06   0.05   0.06
  35   1     0.01  -0.01   0.01     0.11  -0.03   0.02    -0.09   0.07  -0.05
  36   1    -0.01  -0.00   0.01     0.06   0.03   0.04     0.03  -0.03  -0.10
  37   1    -0.00  -0.00   0.00     0.15  -0.07   0.01    -0.07   0.06  -0.06
  38   1     0.00   0.02   0.01    -0.00   0.02   0.13     0.01  -0.09  -0.06
  39   1    -0.00   0.00   0.00    -0.09   0.06  -0.02     0.04  -0.04   0.02
  40   1    -0.02   0.01  -0.00    -0.10   0.06  -0.03     0.13  -0.08   0.04
  41   1     0.04   0.01  -0.02    -0.05   0.08   0.09    -0.19  -0.10   0.08
  42   1     0.01   0.02  -0.02    -0.00  -0.03   0.01    -0.01  -0.06   0.10
  43   8     0.03  -0.15   0.12    -0.01  -0.02   0.01    -0.01  -0.13   0.09
  44   6     0.03  -0.08  -0.04     0.00  -0.01  -0.00    -0.02  -0.08  -0.02
  45   8    -0.01   0.11  -0.13    -0.00   0.02  -0.01    -0.03   0.08  -0.08
  46   6    -0.02   0.05   0.08    -0.00   0.00   0.01    -0.01   0.01   0.08
  47   1    -0.02   0.08  -0.00    -0.00   0.01   0.00    -0.01   0.05   0.01
  48   1    -0.02   0.06   0.02    -0.00   0.01   0.00    -0.01   0.04   0.01
  49   1    -0.01  -0.02   0.11    -0.00  -0.00   0.01     0.00  -0.02   0.09
  50   8    -0.02  -0.04   0.02    -0.02   0.01  -0.02    -0.06   0.00  -0.09
  51   8     0.49  -0.25  -0.03     0.04  -0.02  -0.00     0.06  -0.03  -0.00
  52   6     0.05   0.10  -0.18     0.00   0.01  -0.02    -0.00   0.00  -0.03
  53   8    -0.45   0.24   0.06    -0.04   0.02   0.00    -0.06   0.03   0.00
  54   6    -0.03  -0.13   0.21    -0.00  -0.01   0.02    -0.00  -0.01   0.02
  55   1    -0.21   0.01   0.15    -0.02   0.00   0.01    -0.03   0.01   0.02
  56   1    -0.03  -0.08   0.13     0.00  -0.01   0.01     0.00  -0.01   0.02
  57   1     0.15  -0.17   0.13     0.01  -0.01   0.01     0.02  -0.02   0.02
                     46                     47                     48
                        a                      a                      a 
 Frequencies --   473.7801               498.1744               524.7510
 Red. masses --    13.4686                16.0662                10.3632
 Frc consts  --     0.0000                 0.0000                 0.0000
 IR Inten    --    16.6376               142.0686                29.2864
 Raman Activ --     0.0000                 0.0000                 0.0000
 Depolar     --     0.0000                 0.0000                 0.0000
 Atom AN      X      Y      Z        X      Y      Z        X      Y      Z
   1  53    -0.01  -0.08   0.07     0.01  -0.07   0.09     0.01  -0.04   0.01
   2   6    -0.09   0.09  -0.01     0.00  -0.00  -0.01    -0.01   0.00  -0.01
   3   6    -0.00   0.00  -0.00     0.00   0.00  -0.01     0.00  -0.00  -0.00
   4   6     0.00   0.00   0.00     0.01  -0.00  -0.02     0.00   0.00   0.00
   5   6     0.04  -0.03   0.00    -0.00  -0.01   0.00     0.01  -0.00  -0.00
   6   1     0.02  -0.01   0.01     0.00   0.01   0.01    -0.00   0.00   0.00
   7   6     0.04  -0.04   0.01    -0.00  -0.01   0.00     0.00  -0.00   0.00
   8   1     0.01  -0.01   0.00     0.00   0.00  -0.00    -0.00   0.00  -0.00
   9   6    -0.05   0.05  -0.01    -0.02  -0.00   0.00    -0.00   0.01   0.00
  10   1     0.03  -0.03   0.00    -0.00  -0.01   0.00     0.00  -0.00  -0.00
  11   1     0.03  -0.03   0.00    -0.00  -0.00   0.00     0.00  -0.00   0.00
  12   1    -0.02   0.02  -0.00    -0.01   0.00   0.00    -0.00   0.00   0.00
  13   1     0.02   0.01  -0.00     0.17   0.02   0.03     0.04  -0.04  -0.02
  14   8     0.05   0.05  -0.01    -0.51   0.31  -0.45    -0.15   0.40   0.08
  15   7     0.05   0.03  -0.02     0.01   0.14  -0.10    -0.01  -0.14  -0.16
  16   6     0.01  -0.02  -0.00    -0.05  -0.02   0.06     0.27  -0.12  -0.17
  17   6     0.02   0.03   0.03     0.12   0.05   0.04    -0.24  -0.22  -0.02
  18   6    -0.03  -0.04  -0.02    -0.06  -0.02   0.09     0.15   0.09  -0.28
  19   6     0.02   0.00   0.02     0.04  -0.03  -0.04     0.05  -0.08   0.11
  20   6     0.02   0.01  -0.05     0.01  -0.01  -0.03    -0.02   0.09   0.06
  21   6    -0.02   0.03   0.02     0.02   0.06  -0.06    -0.15  -0.23   0.18
  22   6    -0.03   0.01  -0.02    -0.00  -0.08  -0.05     0.04   0.08   0.06
  23   6     0.03  -0.04   0.01     0.05   0.00   0.08    -0.03   0.08  -0.09
  24   6    -0.08  -0.03   0.02    -0.01  -0.00   0.00    -0.00   0.02   0.01
  25   1    -0.01  -0.02  -0.01    -0.02  -0.01   0.03    -0.00   0.05  -0.03
  26   1     0.01  -0.00   0.00    -0.02  -0.01   0.02     0.05   0.07  -0.14
  27   1     0.01  -0.00   0.01     0.05  -0.04   0.01    -0.07   0.05  -0.01
  28   1     0.00   0.01   0.01     0.03  -0.01  -0.04    -0.01  -0.04   0.09
  29   1     0.02   0.00   0.01    -0.00   0.01  -0.05     0.03  -0.07   0.11
  30   1     0.02   0.02  -0.01     0.03  -0.00  -0.03    -0.03   0.08   0.09
  31   1    -0.01   0.00  -0.03    -0.03  -0.00  -0.04     0.02   0.07   0.08
  32   1     0.01   0.01  -0.01     0.03  -0.00   0.01    -0.13  -0.01  -0.05
  33   1     0.01   0.00  -0.01    -0.00   0.05  -0.06    -0.05  -0.09   0.11
  34   1    -0.01   0.01   0.01    -0.02  -0.02  -0.02    -0.01  -0.01   0.06
  35   1    -0.02   0.00  -0.02    -0.01  -0.04  -0.03    -0.03   0.09   0.02
  36   1     0.01  -0.01  -0.02     0.01  -0.06  -0.03     0.03   0.12   0.03
  37   1    -0.02   0.01  -0.00    -0.06   0.00  -0.01     0.14  -0.04   0.02
  38   1    -0.00  -0.02  -0.01     0.02  -0.01   0.05     0.02   0.09  -0.06
  39   1     0.00  -0.01  -0.00    -0.01   0.01   0.01     0.09   0.02   0.07
  40   1     0.03  -0.02   0.01     0.01  -0.00   0.03    -0.03   0.08  -0.10
  41   1    -0.04  -0.02   0.02    -0.00   0.02   0.01    -0.00  -0.04  -0.02
  42   1    -0.00  -0.02   0.02    -0.01  -0.03  -0.02    -0.00   0.10   0.07
  43   8    -0.07   0.42  -0.35    -0.03  -0.02   0.01     0.01   0.00  -0.01
  44   6    -0.07   0.23   0.10    -0.07  -0.02  -0.00    -0.07  -0.02   0.00
  45   8     0.04  -0.28   0.32     0.01   0.04   0.00     0.00   0.00   0.01
  46   6     0.05  -0.09  -0.23     0.00  -0.00   0.01     0.00  -0.00   0.00
  47   1     0.05  -0.20   0.00     0.01  -0.01   0.02     0.01  -0.01   0.02
  48   1     0.05  -0.13  -0.06     0.01   0.02  -0.02     0.01   0.02  -0.02
  49   1     0.02   0.05  -0.30     0.02  -0.00   0.01     0.02  -0.00   0.00
  50   8     0.01   0.03  -0.02     0.42  -0.16   0.19     0.07  -0.02   0.05
  51   8     0.20  -0.10  -0.00    -0.01   0.01   0.00     0.00  -0.00  -0.00
  52   6     0.03   0.03  -0.07     0.02   0.03   0.04     0.03   0.03   0.02
  53   8    -0.20   0.08   0.04     0.01  -0.01   0.01    -0.00  -0.01   0.00
  54   6     0.00  -0.05   0.07    -0.00   0.00  -0.00     0.00  -0.00  -0.00
  55   1    -0.07   0.00   0.05     0.01  -0.02  -0.01     0.01  -0.01  -0.01
  56   1    -0.00  -0.03   0.05    -0.03   0.01  -0.01    -0.03   0.01  -0.00
  57   1     0.06  -0.07   0.05    -0.00  -0.01  -0.01     0.01  -0.01  -0.01
                     49                     50                     51
                        a                      a                      a 
 Frequencies --   581.9345               582.2761               586.7973
 Red. masses --     9.7724                 8.3007                11.1476
 Frc consts  --     0.0000                 0.0000                 0.0000
 IR Inten    --    37.3684                 6.7705                 0.9390
 Raman Activ --     0.0000                 0.0000                 0.0000
 Depolar     --     0.0000                 0.0000                 0.0000
 Atom AN      X      Y      Z        X      Y      Z        X      Y      Z
   1  53     0.02  -0.01   0.02    -0.04  -0.01   0.04     0.01   0.00  -0.01
   2   6    -0.00  -0.03   0.02    -0.00   0.00   0.01     0.07   0.05  -0.15
   3   6    -0.03  -0.05   0.02    -0.02  -0.02   0.01     0.31   0.30  -0.10
   4   6     0.01   0.01   0.07     0.01   0.01   0.03    -0.07  -0.13  -0.41
   5   6    -0.02  -0.01  -0.07    -0.00  -0.01  -0.03     0.06   0.14   0.45
   6   1    -0.01  -0.01   0.01    -0.01  -0.00   0.01     0.07   0.06  -0.08
   7   6     0.03   0.05  -0.02     0.03   0.02  -0.01    -0.33  -0.32   0.12
   8   1     0.00  -0.00   0.02    -0.01  -0.00   0.01     0.03   0.01  -0.12
   9   6     0.03  -0.00  -0.02     0.00   0.00  -0.01    -0.07  -0.05   0.17
  10   1    -0.00   0.01  -0.02     0.00   0.00  -0.01    -0.03  -0.01   0.13
  11   1     0.00   0.01  -0.02     0.01   0.00  -0.01    -0.07  -0.06   0.09
  12   1    -0.00  -0.01   0.01    -0.01  -0.00   0.00     0.04   0.03  -0.09
  13   1     0.03   0.00  -0.00     0.02   0.02  -0.03     0.00   0.00  -0.00
  14   8    -0.03   0.09  -0.04     0.14   0.05  -0.08     0.02   0.01  -0.01
  15   7     0.01   0.02  -0.05     0.11   0.02  -0.03     0.00   0.01  -0.02
  16   6     0.01  -0.05  -0.02    -0.06  -0.22  -0.09    -0.00  -0.02  -0.01
  17   6    -0.01   0.02   0.03    -0.07   0.16   0.16    -0.01   0.01   0.02
  18   6     0.01   0.01   0.00     0.03   0.04   0.14     0.00   0.00   0.02
  19   6     0.02  -0.02   0.02     0.05  -0.01   0.07     0.01  -0.01   0.01
  20   6    -0.04  -0.03  -0.03    -0.24  -0.19  -0.17    -0.02  -0.02  -0.01
  21   6    -0.00  -0.03   0.01     0.04  -0.14   0.02    -0.00  -0.02   0.01
  22   6    -0.04   0.03   0.02    -0.25   0.22   0.10    -0.02   0.02   0.01
  23   6     0.01  -0.01   0.02     0.05  -0.06   0.04     0.01  -0.00   0.01
  24   6     0.05   0.01  -0.00     0.31   0.03  -0.03     0.03   0.00  -0.00
  25   1    -0.01   0.03   0.03    -0.05   0.13   0.16    -0.01   0.01   0.02
  26   1    -0.01   0.02  -0.03    -0.07   0.05  -0.12    -0.01   0.01  -0.01
  27   1     0.01  -0.00   0.01     0.04   0.00   0.04     0.01  -0.00   0.00
  28   1    -0.00   0.01   0.00    -0.02   0.10  -0.02    -0.00   0.01  -0.00
  29   1     0.02  -0.01   0.02     0.09  -0.01   0.08     0.01  -0.00   0.01
  30   1    -0.01   0.00   0.00    -0.07  -0.03  -0.02    -0.01   0.00   0.00
  31   1    -0.01  -0.01  -0.01    -0.06  -0.05  -0.04    -0.01  -0.01  -0.00
  32   1    -0.02  -0.01  -0.02    -0.09  -0.05  -0.07    -0.01  -0.00  -0.01
  33   1    -0.02   0.01  -0.02    -0.08   0.09  -0.10    -0.01   0.01  -0.01
  34   1    -0.01  -0.04  -0.01    -0.04  -0.20  -0.06    -0.01  -0.02  -0.00
  35   1    -0.02   0.01   0.00    -0.08   0.06   0.02    -0.01   0.01   0.00
  36   1    -0.01   0.01  -0.00    -0.06   0.04   0.01    -0.00   0.00   0.00
  37   1    -0.01   0.01   0.01    -0.09   0.07   0.03    -0.01   0.01   0.00
  38   1     0.00   0.00  -0.01    -0.02  -0.03  -0.10    -0.00   0.00  -0.01
  39   1     0.01  -0.00   0.01     0.04  -0.04   0.01     0.01  -0.00   0.00
  40   1     0.01  -0.00   0.00     0.09  -0.06   0.05     0.01  -0.00   0.00
  41   1     0.04   0.01  -0.02     0.25   0.09  -0.12     0.03   0.01  -0.01
  42   1    -0.02   0.02  -0.01    -0.10   0.07  -0.11    -0.01   0.01  -0.01
  43   8    -0.29  -0.09  -0.08     0.05   0.00   0.01    -0.03  -0.01  -0.02
  44   6     0.64   0.19   0.08    -0.12  -0.05  -0.01     0.09   0.02   0.01
  45   8    -0.30  -0.04  -0.04     0.05   0.02   0.00    -0.04  -0.00  -0.00
  46   6     0.05  -0.02   0.05    -0.01  -0.00   0.00     0.01  -0.01   0.01
  47   1    -0.14   0.12  -0.20     0.03  -0.02   0.04    -0.02   0.02  -0.03
  48   1    -0.07  -0.28   0.28     0.01   0.05  -0.05    -0.01  -0.04   0.04
  49   1    -0.16   0.00  -0.06     0.03  -0.00   0.02    -0.02  -0.00  -0.01
  50   8     0.02  -0.01   0.01     0.04   0.04  -0.12    -0.02  -0.01  -0.02
  51   8     0.02   0.03   0.02     0.01   0.02   0.01     0.00  -0.01  -0.00
  52   6    -0.04  -0.07  -0.05    -0.02  -0.04  -0.03     0.00   0.01   0.00
  53   8     0.01   0.03   0.03    -0.01   0.02   0.02    -0.01   0.00   0.00
  54   6     0.00  -0.01  -0.00     0.01  -0.01  -0.00    -0.00   0.00   0.00
  55   1    -0.01   0.03   0.01    -0.01   0.01   0.01    -0.00  -0.00   0.00
  56   1     0.06  -0.02   0.00     0.03  -0.01   0.00    -0.01   0.00   0.00
  57   1    -0.01   0.03   0.01    -0.00   0.01   0.01     0.00  -0.00  -0.00
                     52                     53                     54
                        a                      a                      a 
 Frequencies --   590.1507               612.5645               636.0161
 Red. masses --    10.0275                12.1563                23.0602
 Frc consts  --     0.0000                 0.0000                 0.0000
 IR Inten    --    35.9579                25.6030               160.2279
 Raman Activ --     0.0000                 0.0000                 0.0000
 Depolar     --     0.0000                 0.0000                 0.0000
 Atom AN      X      Y      Z        X      Y      Z        X      Y      Z
   1  53     0.01   0.03   0.02    -0.02   0.03  -0.05    -0.09  -0.06   0.25
   2   6    -0.03   0.01   0.00    -0.01  -0.01  -0.00    -0.04  -0.03  -0.02
   3   6    -0.02  -0.00   0.00    -0.00  -0.01  -0.00     0.02  -0.01  -0.02
   4   6    -0.02   0.02   0.02     0.00  -0.00   0.02    -0.01  -0.03   0.03
   5   6     0.01  -0.01  -0.02    -0.00   0.00  -0.02    -0.00   0.02  -0.02
   6   1     0.00  -0.00   0.01     0.00  -0.01   0.00     0.01   0.01   0.02
   7   6     0.02   0.00   0.00     0.00   0.01   0.00    -0.03  -0.01   0.02
   8   1     0.00  -0.00   0.01     0.00  -0.00   0.00    -0.00  -0.01   0.01
   9   6    -0.00   0.02  -0.00     0.01   0.00   0.00     0.03   0.01   0.02
  10   1     0.01  -0.01  -0.00    -0.00  -0.00  -0.00    -0.01  -0.00  -0.01
  11   1     0.01  -0.01  -0.00    -0.00   0.00  -0.00    -0.02  -0.01  -0.01
  12   1    -0.00   0.00   0.00     0.00  -0.00   0.00     0.01   0.00   0.00
  13   1    -0.00  -0.00  -0.00    -0.05   0.01  -0.00     0.17   0.02  -0.04
  14   8     0.01  -0.05   0.00     0.47   0.08  -0.15     0.06   0.02  -0.01
  15   7     0.03  -0.01   0.02    -0.12   0.23  -0.35    -0.01   0.00   0.00
  16   6     0.00  -0.03  -0.02    -0.09   0.10   0.16    -0.04   0.07   0.04
  17   6     0.01   0.04   0.02    -0.09  -0.19  -0.03    -0.04  -0.07  -0.05
  18   6     0.01   0.00  -0.00    -0.12  -0.04   0.26    -0.04  -0.01   0.07
  19   6     0.01   0.00   0.01    -0.02  -0.01  -0.06    -0.05   0.05  -0.06
  20   6    -0.03  -0.02  -0.02     0.08   0.06   0.06     0.06   0.04   0.04
  21   6     0.02   0.01  -0.01    -0.12  -0.23   0.14    -0.04  -0.07   0.04
  22   6    -0.03   0.03   0.01     0.08  -0.08  -0.03     0.06  -0.05  -0.01
  23   6     0.01  -0.01   0.01    -0.02   0.06  -0.01    -0.05   0.04  -0.07
  24   6     0.03   0.00  -0.01    -0.03  -0.04   0.05    -0.03  -0.01   0.02
  25   1    -0.00   0.01   0.01    -0.05   0.02   0.11     0.00  -0.01   0.00
  26   1    -0.00   0.01  -0.01    -0.08  -0.02   0.03    -0.01  -0.02   0.04
  27   1    -0.00   0.00   0.00     0.06  -0.07   0.00    -0.00  -0.00  -0.02
  28   1    -0.00   0.01   0.00     0.03  -0.04  -0.05     0.00  -0.01  -0.02
  29   1     0.01  -0.00   0.02    -0.05   0.05  -0.12    -0.04   0.03  -0.05
  30   1    -0.01  -0.00  -0.00     0.04   0.01  -0.01     0.01  -0.01  -0.00
  31   1    -0.01  -0.01  -0.01     0.01  -0.01  -0.02     0.01   0.01   0.01
  32   1    -0.01  -0.01  -0.01     0.07   0.04   0.03     0.04   0.01   0.03
  33   1     0.00   0.01  -0.02    -0.07  -0.03   0.03    -0.01  -0.03   0.04
  34   1     0.00  -0.01  -0.01    -0.05  -0.11   0.03     0.00   0.00   0.02
  35   1    -0.01   0.00   0.00     0.01   0.02   0.00     0.01  -0.01  -0.01
  36   1    -0.01   0.00   0.00     0.03   0.01  -0.00     0.02   0.01   0.00
  37   1    -0.02   0.01   0.00     0.08  -0.04  -0.03     0.05  -0.04   0.01
  38   1    -0.00  -0.01  -0.01     0.02   0.07   0.01    -0.00   0.03  -0.00
  39   1    -0.00  -0.01  -0.01     0.06   0.03   0.07     0.00   0.01   0.00
  40   1     0.02  -0.02   0.02    -0.05   0.09  -0.09    -0.04   0.03  -0.05
  41   1     0.01   0.00  -0.00     0.11   0.05  -0.07     0.01   0.01  -0.01
  42   1     0.00   0.00  -0.01    -0.15   0.04  -0.06    -0.04   0.01  -0.01
  43   8    -0.04  -0.01   0.01    -0.00   0.01  -0.06    -0.01  -0.03  -0.00
  44   6     0.08   0.03   0.00    -0.01  -0.01   0.02     0.02  -0.03   0.00
  45   8    -0.03  -0.02  -0.01    -0.02   0.02   0.01    -0.02   0.04  -0.02
  46   6     0.01   0.01  -0.00     0.00  -0.02   0.02     0.01  -0.03   0.04
  47   1    -0.02   0.02  -0.03     0.00  -0.01   0.01    -0.00  -0.00   0.01
  48   1    -0.01  -0.03   0.03     0.00  -0.00  -0.00     0.00  -0.01   0.02
  49   1    -0.02   0.00  -0.01     0.00  -0.00   0.00    -0.00  -0.01   0.02
  50   8    -0.03  -0.00  -0.03     0.03  -0.09   0.22     0.38   0.25  -0.75
  51   8    -0.09  -0.29  -0.12    -0.01  -0.02  -0.02     0.02  -0.03   0.02
  52   6     0.29   0.50   0.35     0.03   0.04   0.03    -0.01   0.01  -0.00
  53   8    -0.07  -0.24  -0.22    -0.02  -0.02  -0.01    -0.01  -0.01  -0.01
  54   6    -0.04   0.08   0.04     0.01   0.00   0.00    -0.02   0.01   0.01
  55   1     0.07  -0.18  -0.08     0.01  -0.01  -0.01    -0.01   0.00   0.00
  56   1    -0.41   0.12  -0.02    -0.03   0.01  -0.00    -0.01   0.00   0.00
  57   1     0.07  -0.17  -0.09     0.01  -0.01  -0.01    -0.00  -0.00   0.00
                     55                     56                     57
                        a                      a                      a 
 Frequencies --   648.1807               655.2572               658.4946
 Red. masses --    12.8192                11.4167                13.2470
 Frc consts  --     0.0000                 0.0000                 0.0000
 IR Inten    --     3.6261                28.5423                58.2380
 Raman Activ --     0.0000                 0.0000                 0.0000
 Depolar     --     0.0000                 0.0000                 0.0000
 Atom AN      X      Y      Z        X      Y      Z        X      Y      Z
   1  53     0.07   0.09   0.03    -0.01  -0.02  -0.01    -0.02  -0.03  -0.03
   2   6    -0.37  -0.22  -0.25    -0.18   0.35   0.03    -0.09   0.22   0.03
   3   6     0.16  -0.07  -0.28     0.19  -0.21   0.12     0.08  -0.09   0.07
   4   6    -0.08  -0.24   0.22     0.27  -0.19  -0.02     0.14  -0.07  -0.04
   5   6    -0.00   0.13  -0.33    -0.25   0.21   0.06    -0.14   0.10   0.06
   6   1     0.09   0.02   0.02     0.11  -0.13   0.01     0.07  -0.09   0.00
   7   6    -0.26  -0.05   0.23    -0.17   0.26  -0.10    -0.07   0.15  -0.08
   8   1     0.06   0.00   0.06     0.11  -0.13   0.00     0.07  -0.08  -0.00
   9   6     0.33   0.19   0.22     0.14  -0.27  -0.02     0.03  -0.16  -0.04
  10   1    -0.09  -0.05  -0.09    -0.02   0.06   0.02     0.02   0.02   0.02
  11   1    -0.11  -0.06  -0.04    -0.02   0.07   0.00     0.02   0.02   0.01
  12   1     0.11   0.03   0.06     0.11  -0.14   0.00     0.06  -0.10  -0.00
  13   1    -0.02  -0.00   0.01    -0.01  -0.00   0.01     0.01   0.01  -0.01
  14   8    -0.01  -0.00  -0.00    -0.03  -0.02   0.00     0.02   0.04  -0.01
  15   7    -0.00  -0.00  -0.00     0.01  -0.02   0.03    -0.01   0.03  -0.05
  16   6     0.00  -0.01  -0.01    -0.00  -0.00  -0.01     0.00  -0.00   0.00
  17   6     0.01   0.01   0.01     0.00   0.01  -0.00    -0.00  -0.01   0.00
  18   6     0.01   0.00  -0.01     0.01   0.00  -0.01    -0.01  -0.00   0.01
  19   6     0.01  -0.01   0.01    -0.00   0.00   0.00     0.00  -0.00  -0.00
  20   6    -0.01  -0.01  -0.01    -0.01  -0.01   0.00     0.00   0.00   0.00
  21   6     0.01   0.01  -0.01     0.01   0.01  -0.01    -0.01  -0.02   0.01
  22   6    -0.01   0.00   0.00    -0.00   0.01   0.00     0.01  -0.01  -0.00
  23   6     0.01  -0.01   0.01     0.00  -0.00  -0.00     0.00   0.00   0.00
  24   6     0.01   0.00  -0.00     0.00   0.00  -0.00    -0.00  -0.00   0.01
  25   1    -0.00   0.00  -0.00     0.00  -0.00  -0.01    -0.00   0.00   0.01
  26   1     0.00   0.00  -0.01     0.00   0.00   0.00    -0.00   0.00  -0.00
  27   1     0.00   0.00   0.00    -0.00   0.00  -0.00     0.00  -0.01   0.00
  28   1    -0.00   0.00   0.00    -0.00   0.00   0.00     0.00  -0.00  -0.00
  29   1     0.00  -0.00   0.01     0.00  -0.00   0.01    -0.00   0.00  -0.01
  30   1    -0.00   0.00   0.00    -0.00   0.00   0.00     0.00   0.00   0.00
  31   1    -0.00  -0.00  -0.00     0.00  -0.00   0.00    -0.00  -0.00  -0.00
  32   1    -0.01   0.00  -0.01    -0.00  -0.00  -0.00     0.00   0.00  -0.00
  33   1     0.00   0.01  -0.01     0.00   0.00  -0.00    -0.01  -0.00  -0.00
  34   1     0.00  -0.00  -0.00     0.00   0.01  -0.00    -0.01  -0.01   0.00
  35   1    -0.00   0.00   0.00    -0.00  -0.00  -0.00     0.00   0.00   0.00
  36   1    -0.00  -0.00  -0.00    -0.00   0.00   0.00     0.00  -0.00  -0.00
  37   1    -0.01   0.00  -0.00    -0.00   0.00   0.00     0.00  -0.00  -0.00
  38   1     0.00  -0.00   0.00    -0.00  -0.00  -0.00     0.00   0.01   0.00
  39   1     0.00  -0.00   0.00    -0.00  -0.00  -0.00     0.01   0.00   0.01
  40   1     0.01  -0.01   0.01     0.00  -0.00   0.00    -0.00   0.01  -0.01
  41   1    -0.00  -0.00   0.00    -0.00  -0.00   0.00     0.01   0.00  -0.01
  42   1     0.01  -0.00   0.00     0.01  -0.00   0.00    -0.01   0.00  -0.00
  43   8    -0.00   0.00   0.05     0.05   0.04  -0.31    -0.08  -0.06   0.54
  44   6    -0.01   0.02  -0.02    -0.03  -0.09   0.07     0.03   0.15  -0.12
  45   8     0.02  -0.05   0.01    -0.05   0.22  -0.01     0.10  -0.40   0.03
  46   6    -0.01   0.03  -0.04     0.03  -0.15   0.18    -0.05   0.26  -0.32
  47   1     0.00   0.00  -0.01     0.02  -0.06   0.06    -0.02   0.09  -0.10
  48   1    -0.00   0.01  -0.02     0.01  -0.03   0.04    -0.02   0.07  -0.08
  49   1     0.00   0.01  -0.01     0.02  -0.04   0.05    -0.02   0.08  -0.10
  50   8    -0.03  -0.02   0.07    -0.02  -0.01   0.02     0.03   0.02  -0.02
  51   8    -0.01   0.02  -0.01    -0.01  -0.02  -0.02     0.05  -0.05   0.04
  52   6     0.01  -0.01  -0.00     0.01   0.02   0.01    -0.04   0.00  -0.00
  53   8    -0.01   0.01   0.02    -0.01  -0.01  -0.00     0.06   0.01  -0.04
  54   6     0.02  -0.01  -0.00    -0.00   0.01   0.00    -0.06   0.04   0.01
  55   1     0.01  -0.00  -0.00    -0.00  -0.00  -0.00    -0.02   0.02   0.01
  56   1     0.01  -0.00  -0.00    -0.01   0.00   0.00    -0.01   0.01   0.00
  57   1     0.01  -0.00  -0.00     0.00  -0.01  -0.00    -0.02   0.01   0.00
                     58                     59                     60
                        a                      a                      a 
 Frequencies --   684.5907               750.9193               769.4188
 Red. masses --    13.6221                 3.1088                11.3523
 Frc consts  --     0.0000                 0.0000                 0.0000
 IR Inten    --   197.8148                28.3000                12.2746
 Raman Activ --     0.0000                 0.0000                 0.0000
 Depolar     --     0.0000                 0.0000                 0.0000
 Atom AN      X      Y      Z        X      Y      Z        X      Y      Z
   1  53     0.03  -0.01   0.01    -0.00  -0.00  -0.00     0.02   0.00  -0.02
   2   6     0.00   0.04   0.01    -0.18   0.19  -0.02    -0.01   0.00  -0.00
   3   6     0.02  -0.02   0.02     0.12  -0.11   0.02     0.00  -0.00  -0.00
   4   6     0.04  -0.01  -0.01     0.10  -0.09   0.01     0.00  -0.00  -0.00
   5   6    -0.02   0.01   0.03     0.10  -0.10   0.03     0.00  -0.00  -0.00
   6   1    -0.01   0.00  -0.01    -0.25   0.25  -0.02    -0.00   0.00  -0.01
   7   6     0.01   0.02  -0.02     0.10  -0.08   0.00    -0.00  -0.00   0.00
   8   1    -0.01   0.01  -0.01    -0.22   0.23  -0.04    -0.00   0.01  -0.00
   9   6    -0.01  -0.04  -0.02     0.11  -0.14   0.01     0.01   0.00   0.00
  10   1    -0.01   0.02   0.01    -0.31   0.30  -0.04    -0.01   0.00  -0.00
  11   1    -0.01   0.03   0.00    -0.29   0.30  -0.05    -0.01   0.00  -0.00
  12   1    -0.01   0.00  -0.01    -0.34   0.32  -0.05    -0.00   0.01  -0.00
  13   1     0.01   0.00  -0.01    -0.01  -0.01  -0.00     0.06   0.03  -0.04
  14   8     0.01  -0.00  -0.02     0.01  -0.00   0.00    -0.06   0.12  -0.16
  15   7    -0.00  -0.01   0.02    -0.01   0.00  -0.01     0.54  -0.18   0.31
  16   6    -0.00   0.01   0.00     0.00   0.00   0.00     0.03   0.02  -0.06
  17   6     0.00  -0.00  -0.01     0.00   0.00   0.00     0.02   0.04  -0.04
  18   6    -0.00   0.00   0.00    -0.00   0.00  -0.00    -0.06  -0.07   0.17
  19   6    -0.00   0.00  -0.00     0.00  -0.00   0.00    -0.15   0.19  -0.18
  20   6     0.01   0.01   0.01     0.00   0.00  -0.00     0.08   0.05   0.05
  21   6     0.00   0.00  -0.00     0.00   0.00  -0.00    -0.06  -0.13   0.12
  22   6     0.01  -0.01  -0.00    -0.00   0.00   0.00     0.08  -0.07  -0.03
  23   6    -0.00  -0.00  -0.00     0.00  -0.00   0.01    -0.15   0.09  -0.25
  24   6    -0.00  -0.00  -0.00     0.00  -0.00  -0.00    -0.11  -0.09   0.13
  25   1     0.00  -0.00  -0.00    -0.00  -0.00  -0.00    -0.01   0.02   0.07
  26   1    -0.00  -0.00   0.01    -0.00  -0.00   0.00    -0.03  -0.00   0.01
  27   1     0.00  -0.00  -0.00     0.00  -0.00   0.00    -0.08   0.11  -0.06
  28   1     0.00  -0.00  -0.00     0.00  -0.00   0.00    -0.07   0.09  -0.04
  29   1    -0.00   0.00  -0.00    -0.00  -0.00  -0.00    -0.01   0.01   0.03
  30   1     0.00  -0.00  -0.00    -0.00  -0.01  -0.00    -0.00  -0.03  -0.01
  31   1     0.00   0.00   0.00    -0.00   0.00  -0.00     0.05   0.01   0.03
  32   1     0.00   0.00   0.00     0.00  -0.00   0.00     0.05   0.02   0.04
  33   1     0.00  -0.00   0.00     0.00   0.00  -0.00    -0.02  -0.02   0.01
  34   1     0.00   0.01   0.00    -0.00   0.00  -0.00    -0.01  -0.06   0.01
  35   1     0.00   0.00   0.00    -0.00   0.00  -0.00     0.05  -0.03   0.00
  36   1     0.00   0.00   0.00     0.00  -0.00  -0.00    -0.00   0.02   0.02
  37   1     0.00  -0.00  -0.00    -0.00   0.00  -0.00     0.06  -0.04   0.00
  38   1     0.00   0.00   0.00     0.00  -0.00   0.00    -0.06  -0.00  -0.09
  39   1     0.00   0.00   0.00     0.00  -0.00   0.00    -0.08   0.01  -0.13
  40   1    -0.00   0.00  -0.00     0.00   0.00   0.00    -0.01  -0.03  -0.00
  41   1    -0.00  -0.00   0.00    -0.00  -0.00   0.00     0.12   0.05  -0.07
  42   1     0.00  -0.00   0.00     0.00  -0.00   0.00    -0.20   0.03  -0.06
  43   8    -0.03  -0.02   0.09     0.01  -0.01   0.02    -0.02  -0.01   0.01
  44   6     0.02   0.01  -0.01     0.00   0.00  -0.00     0.00   0.01   0.00
  45   8     0.01  -0.05   0.00     0.01  -0.02   0.01    -0.01  -0.01   0.00
  46   6    -0.00   0.04  -0.05     0.00   0.01  -0.02     0.00   0.01  -0.01
  47   1    -0.01   0.02  -0.02    -0.00   0.01  -0.01    -0.00   0.00  -0.01
  48   1    -0.00   0.00  -0.00    -0.00  -0.00  -0.00    -0.00  -0.00   0.00
  49   1    -0.01   0.01  -0.01    -0.00   0.00  -0.01    -0.00   0.00  -0.00
  50   8     0.00   0.02  -0.05     0.00  -0.00   0.00    -0.17  -0.03   0.08
  51   8    -0.33   0.32  -0.29     0.02  -0.03   0.01     0.01  -0.01   0.01
  52   6     0.22   0.00   0.04    -0.01   0.00   0.00     0.00  -0.00  -0.00
  53   8    -0.44  -0.01   0.29     0.02  -0.01  -0.02     0.00   0.00  -0.00
  54   6     0.45  -0.25  -0.05    -0.02   0.01   0.00    -0.00   0.00  -0.00
  55   1     0.14  -0.10  -0.03    -0.01   0.00   0.00    -0.00   0.00   0.00
  56   1     0.08  -0.06  -0.02    -0.01   0.00   0.00    -0.00   0.00   0.00
  57   1     0.15  -0.10  -0.02    -0.01   0.01   0.00     0.00  -0.00   0.00
                     61                     62                     63
                        a                      a                      a 
 Frequencies --   820.8535               849.5706               878.8981
 Red. masses --     8.6589                 8.4692                 3.2468
 Frc consts  --     0.0000                 0.0000                 0.0000
 IR Inten    --     0.3879                 1.8344                 0.0503
 Raman Activ --     0.0000                 0.0000                 0.0000
 Depolar     --     0.0000                 0.0000                 0.0000
 Atom AN      X      Y      Z        X      Y      Z        X      Y      Z
   1  53    -0.00  -0.00   0.00    -0.00   0.00  -0.00     0.00  -0.00  -0.00
   2   6     0.00  -0.00   0.00     0.00   0.00   0.00    -0.01   0.00   0.00
   3   6    -0.00   0.00   0.00     0.00  -0.00   0.00     0.18  -0.17   0.02
   4   6    -0.00   0.00   0.00     0.00   0.00  -0.00    -0.11   0.12  -0.02
   5   6     0.00   0.00   0.00     0.00   0.00  -0.00     0.15  -0.15   0.02
   6   1     0.00  -0.00  -0.00    -0.00   0.00   0.00    -0.36   0.36  -0.03
   7   6     0.00   0.00  -0.00    -0.00  -0.00   0.00    -0.18   0.18  -0.03
   8   1     0.00  -0.00   0.00     0.00  -0.00  -0.00     0.23  -0.25   0.04
   9   6    -0.00  -0.00  -0.00     0.00   0.00   0.00    -0.04   0.03  -0.00
  10   1     0.00   0.00   0.00    -0.00   0.00  -0.00    -0.29   0.27  -0.04
  11   1     0.00  -0.00   0.00     0.00  -0.00   0.00     0.36  -0.35   0.06
  12   1     0.00  -0.00  -0.00     0.00  -0.00   0.00     0.06  -0.06   0.01
  13   1     0.00  -0.05  -0.03     0.09   0.03  -0.04    -0.00  -0.01  -0.00
  14   8    -0.01   0.05   0.03     0.13   0.15  -0.21     0.00  -0.00   0.00
  15   7    -0.01  -0.23  -0.16     0.32  -0.12   0.17     0.00  -0.01  -0.00
  16   6     0.12  -0.10  -0.11    -0.18   0.12   0.19     0.00   0.01  -0.00
  17   6    -0.10  -0.13  -0.05    -0.17  -0.24  -0.04     0.00   0.00  -0.00
  18   6    -0.01  -0.15   0.27    -0.06   0.14  -0.01    -0.01   0.00   0.01
  19   6    -0.15   0.18  -0.23    -0.00  -0.02   0.09     0.01  -0.00   0.00
  20   6     0.20   0.11   0.10    -0.14  -0.04  -0.02     0.01   0.01  -0.01
  21   6     0.01   0.19  -0.24    -0.04  -0.03  -0.14     0.01  -0.00   0.00
  22   6    -0.20   0.13   0.07    -0.16   0.03   0.04    -0.00   0.00   0.00
  23   6     0.16  -0.13   0.25     0.00  -0.08   0.06     0.00  -0.00   0.00
  24   6    -0.01  -0.09  -0.05     0.20   0.14  -0.20    -0.01  -0.00   0.00
  25   1    -0.07   0.05   0.18     0.04  -0.06  -0.11    -0.00  -0.01  -0.00
  26   1    -0.08  -0.01  -0.07    -0.02  -0.06   0.14     0.00  -0.00   0.01
  27   1    -0.08   0.11  -0.07     0.07  -0.07   0.05    -0.00   0.00  -0.00
  28   1    -0.07   0.09  -0.06     0.02  -0.00  -0.02     0.00  -0.00   0.00
  29   1    -0.02   0.02   0.00    -0.01   0.04  -0.04     0.00  -0.00   0.00
  30   1     0.03   0.06   0.08    -0.01  -0.06  -0.08    -0.01  -0.01  -0.01
  31   1     0.09   0.09   0.11    -0.07  -0.10  -0.10     0.01   0.01   0.01
  32   1    -0.06  -0.02  -0.00     0.12   0.05   0.05     0.00  -0.01   0.01
  33   1     0.09  -0.06   0.01    -0.01  -0.09   0.11     0.00   0.00  -0.00
  34   1     0.06   0.19  -0.02     0.03   0.12   0.01     0.00  -0.01  -0.00
  35   1    -0.09   0.12   0.04    -0.07   0.13   0.05     0.00  -0.00  -0.00
  36   1    -0.04   0.10   0.02    -0.04   0.12   0.04    -0.00  -0.00   0.00
  37   1     0.05  -0.01  -0.01     0.14  -0.07  -0.03    -0.00   0.00   0.00
  38   1     0.06  -0.02   0.10     0.02   0.02  -0.01    -0.00   0.00  -0.00
  39   1     0.08  -0.02   0.12     0.08  -0.02   0.10     0.00  -0.00   0.00
  40   1     0.02   0.01   0.02    -0.00   0.03  -0.05     0.00  -0.00   0.00
  41   1    -0.00   0.11   0.07    -0.16  -0.07   0.10     0.00  -0.00  -0.00
  42   1    -0.00  -0.17  -0.11     0.29  -0.05   0.07    -0.00  -0.00  -0.00
  43   8     0.00  -0.00  -0.00    -0.01  -0.01   0.01    -0.00   0.00  -0.00
  44   6     0.00   0.00   0.00     0.00   0.01   0.00     0.00   0.00  -0.00
  45   8    -0.00  -0.00  -0.00    -0.01  -0.00   0.01     0.00  -0.00  -0.00
  46   6     0.00   0.00  -0.00    -0.00   0.00  -0.00    -0.01  -0.00   0.00
  47   1    -0.00   0.00  -0.00     0.00  -0.00   0.00     0.00  -0.01   0.01
  48   1    -0.00  -0.00   0.00     0.00   0.00  -0.00     0.00   0.01  -0.01
  49   1    -0.00   0.00  -0.00     0.00   0.00  -0.00     0.00  -0.00   0.00
  50   8     0.00   0.01   0.00    -0.07  -0.02   0.02     0.00  -0.00   0.00
  51   8     0.00  -0.00   0.00     0.01  -0.01   0.01     0.00   0.00  -0.01
  52   6     0.00  -0.00  -0.00     0.00  -0.00  -0.00     0.00  -0.00   0.00
  53   8     0.00  -0.00   0.00     0.00   0.00  -0.00    -0.00   0.00   0.01
  54   6    -0.00   0.00  -0.00    -0.00   0.00  -0.00    -0.00   0.00  -0.00
  55   1    -0.00   0.00   0.00    -0.00   0.00   0.00    -0.00   0.00   0.00
  56   1    -0.00   0.00  -0.00    -0.00   0.00   0.00    -0.00   0.00   0.00
  57   1    -0.00   0.00   0.00     0.00  -0.00   0.00     0.00  -0.00   0.00
                     64                     65                     66
                        a                      a                      a 
 Frequencies --   882.0197               907.0383               922.7739
 Red. masses --     5.2446                 3.5538                 7.3847
 Frc consts  --     0.0000                 0.0000                 0.0000
 IR Inten    --     4.0309                 1.1422                 2.4828
 Raman Activ --     0.0000                 0.0000                 0.0000
 Depolar     --     0.0000                 0.0000                 0.0000
 Atom AN      X      Y      Z        X      Y      Z        X      Y      Z
   1  53    -0.00  -0.00   0.00     0.00  -0.00   0.00    -0.00  -0.00  -0.00
   2   6     0.00  -0.00  -0.00     0.04  -0.02   0.01    -0.01   0.00  -0.00
   3   6    -0.00   0.00  -0.00    -0.21   0.17  -0.02     0.00   0.00  -0.00
   4   6     0.00  -0.00   0.00    -0.13   0.12  -0.04     0.02  -0.02   0.01
   5   6    -0.00   0.00   0.00     0.11  -0.10   0.00     0.01  -0.02   0.00
   6   1     0.01  -0.01  -0.00     0.36  -0.37   0.03    -0.00   0.01   0.00
   7   6     0.00  -0.00   0.00    -0.07   0.04  -0.00    -0.00   0.00  -0.00
   8   1    -0.00   0.00  -0.00     0.28  -0.31   0.05    -0.03   0.03  -0.00
   9   6     0.00  -0.00  -0.00     0.23  -0.18   0.05    -0.03   0.02  -0.01
  10   1     0.01  -0.01   0.00    -0.23   0.23  -0.04    -0.02   0.02  -0.00
  11   1    -0.01   0.01  -0.00     0.04  -0.05   0.00     0.01  -0.00   0.00
  12   1    -0.00   0.00  -0.00    -0.32   0.33  -0.05     0.04  -0.04   0.01
  13   1     0.00  -0.05  -0.03     0.00   0.01   0.00     0.00  -0.01   0.01
  14   8    -0.00   0.02   0.01    -0.00   0.00   0.00    -0.04  -0.04   0.05
  15   7    -0.01  -0.21  -0.14     0.00   0.00  -0.00     0.06   0.01  -0.02
  16   6     0.02  -0.03  -0.06    -0.01  -0.01   0.01    -0.08  -0.08   0.10
  17   6     0.00  -0.05  -0.00    -0.00  -0.00   0.00    -0.07  -0.07   0.12
  18   6    -0.33   0.17   0.07     0.00  -0.01  -0.02     0.08  -0.32  -0.28
  19   6     0.05  -0.00  -0.05    -0.01   0.01  -0.01    -0.14   0.05  -0.03
  20   6     0.10   0.06   0.04    -0.00  -0.01   0.02     0.03   0.04   0.12
  21   6     0.31   0.12   0.13     0.00   0.01   0.01     0.07   0.41   0.19
  22   6    -0.09   0.06   0.03     0.00  -0.00   0.00     0.03  -0.13   0.03
  23   6    -0.04  -0.04   0.01    -0.00  -0.00  -0.00    -0.15  -0.01  -0.08
  24   6    -0.01   0.00   0.01     0.01   0.00   0.00     0.18  -0.00   0.00
  25   1     0.06  -0.21  -0.25    -0.00   0.00  -0.00    -0.09   0.02   0.08
  26   1     0.10  -0.02   0.36    -0.00  -0.00  -0.01    -0.09  -0.06  -0.27
  27   1    -0.08   0.08  -0.05     0.00  -0.00   0.00     0.08  -0.07   0.05
  28   1    -0.01  -0.02   0.06    -0.00   0.00  -0.01    -0.02   0.08  -0.11
  29   1     0.01  -0.06   0.07    -0.00   0.01  -0.01    -0.01   0.07  -0.08
  30   1     0.03   0.05   0.04     0.02   0.02   0.01     0.08   0.04  -0.01
  31   1     0.03   0.05   0.04    -0.01  -0.01  -0.01    -0.06  -0.06  -0.09
  32   1    -0.04  -0.01  -0.01    -0.00   0.01  -0.01     0.11   0.08   0.03
  33   1    -0.11   0.30  -0.18    -0.01   0.01  -0.00    -0.11   0.28  -0.08
  34   1    -0.03  -0.32  -0.09    -0.00  -0.00   0.00    -0.09  -0.10   0.01
  35   1    -0.02   0.04   0.03    -0.00   0.00   0.00    -0.08   0.13   0.03
  36   1    -0.04   0.06   0.03     0.00   0.00  -0.00     0.09  -0.00  -0.05
  37   1     0.03  -0.01   0.01     0.00  -0.00  -0.00     0.13  -0.06  -0.08
  38   1     0.00   0.05  -0.05    -0.00   0.00  -0.00    -0.03   0.07  -0.12
  39   1     0.07  -0.01   0.09     0.00   0.00   0.00     0.09  -0.01   0.09
  40   1    -0.00   0.04  -0.07    -0.00   0.00  -0.00    -0.02   0.05  -0.10
  41   1     0.01  -0.20  -0.13     0.00  -0.00   0.00     0.06  -0.00  -0.01
  42   1    -0.01  -0.06  -0.04     0.00   0.00   0.00     0.06  -0.01   0.00
  43   8     0.00  -0.00  -0.00    -0.01   0.01   0.00    -0.00   0.01   0.01
  44   6    -0.00   0.00   0.00     0.01   0.01  -0.01    -0.00   0.00  -0.01
  45   8    -0.00   0.00   0.00     0.00  -0.00  -0.01     0.00  -0.00  -0.01
  46   6     0.00   0.00  -0.00    -0.01  -0.01   0.01     0.00  -0.01   0.01
  47   1    -0.00   0.00  -0.00     0.01  -0.01   0.01     0.00  -0.00   0.00
  48   1    -0.00  -0.00   0.00     0.00   0.01  -0.01     0.00  -0.00   0.00
  49   1    -0.00   0.00  -0.00     0.01  -0.00   0.00     0.00  -0.00   0.00
  50   8     0.00   0.01   0.00     0.00   0.00  -0.00    -0.00   0.00  -0.00
  51   8     0.00   0.00   0.00    -0.00   0.01  -0.01    -0.00   0.00   0.00
  52   6     0.00  -0.00  -0.00     0.00  -0.00  -0.00    -0.00   0.00   0.00
  53   8     0.00  -0.00   0.00    -0.01   0.00   0.01     0.00   0.00  -0.00
  54   6    -0.00   0.00  -0.00     0.00   0.00  -0.00     0.00  -0.00   0.00
  55   1    -0.00   0.00   0.00    -0.00   0.00   0.00     0.00  -0.00  -0.00
  56   1     0.00  -0.00  -0.00    -0.00   0.00   0.00     0.00  -0.00  -0.00
  57   1    -0.00   0.00   0.00     0.00  -0.00   0.00    -0.00   0.00  -0.00
                     67                     68                     69
                        a                      a                      a 
 Frequencies --   928.0706               934.0639               946.7863
 Red. masses --     3.8192                 3.2797                12.6414
 Frc consts  --     0.0000                 0.0000                 0.0000
 IR Inten    --     0.1492                 0.8085                29.9028
 Raman Activ --     0.0000                 0.0000                 0.0000
 Depolar     --     0.0000                 0.0000                 0.0000
 Atom AN      X      Y      Z        X      Y      Z        X      Y      Z
   1  53     0.00   0.00  -0.00    -0.00   0.00   0.00     0.01  -0.02  -0.00
   2   6     0.03  -0.04   0.00     0.02  -0.04  -0.00    -0.02  -0.01  -0.01
   3   6     0.14  -0.12   0.01    -0.06   0.08  -0.01     0.02   0.02  -0.02
   4   6    -0.15   0.16  -0.02     0.17  -0.17   0.05     0.01  -0.01   0.03
   5   6    -0.23   0.22  -0.03    -0.02   0.02   0.01    -0.00  -0.00   0.02
   6   1    -0.24   0.25  -0.02     0.04  -0.03   0.00     0.01   0.00  -0.00
   7   6     0.05  -0.03   0.00    -0.22   0.23  -0.04     0.01   0.02  -0.01
   8   1     0.21  -0.23   0.04    -0.36   0.40  -0.06    -0.03   0.02   0.00
   9   6     0.17  -0.18   0.03     0.11  -0.13   0.01    -0.02  -0.02  -0.01
  10   1     0.39  -0.39   0.06     0.10  -0.10   0.02    -0.00  -0.00   0.00
  11   1    -0.01   0.02  -0.00     0.42  -0.42   0.06     0.01  -0.00   0.00
  12   1    -0.33   0.32  -0.05    -0.25   0.24  -0.05    -0.01  -0.00  -0.00
  13   1    -0.00  -0.00  -0.00    -0.00   0.00   0.00     0.00   0.00  -0.00
  14   8    -0.00  -0.00   0.00     0.00  -0.00   0.00     0.00   0.00  -0.00
  15   7     0.01   0.00  -0.00    -0.00   0.00   0.00     0.00  -0.01  -0.01
  16   6    -0.01   0.00   0.00     0.00  -0.00   0.00    -0.02  -0.01  -0.01
  17   6    -0.01  -0.01   0.01     0.00  -0.00  -0.00     0.01   0.00  -0.02
  18   6     0.01  -0.03  -0.02    -0.00   0.00   0.00    -0.00   0.02  -0.00
  19   6    -0.01  -0.00   0.00    -0.00   0.00  -0.00    -0.02  -0.03   0.00
  20   6     0.00   0.02  -0.00    -0.00  -0.00   0.00     0.01   0.03   0.02
  21   6     0.01   0.04   0.01    -0.00  -0.00  -0.00     0.00  -0.02  -0.00
  22   6     0.00  -0.01   0.00    -0.00   0.00  -0.00    -0.01   0.02  -0.00
  23   6    -0.01  -0.00  -0.01     0.00   0.00   0.00     0.01  -0.01  -0.00
  24   6     0.01  -0.00   0.00     0.00   0.00  -0.00    -0.01   0.00   0.01
  25   1    -0.01   0.00   0.01     0.00  -0.00  -0.00     0.00  -0.00  -0.01
  26   1    -0.01  -0.01  -0.02     0.00   0.00   0.00     0.01   0.01   0.01
  27   1     0.01  -0.01   0.01    -0.00   0.00  -0.00     0.02  -0.01   0.02
  28   1    -0.00   0.01  -0.01     0.00  -0.00   0.00    -0.02   0.04  -0.02
  29   1     0.00   0.00  -0.00    -0.00   0.00  -0.00     0.02  -0.01   0.02
  30   1    -0.01  -0.01  -0.01     0.00   0.00   0.00    -0.01  -0.01  -0.01
  31   1     0.00   0.00   0.00    -0.00  -0.00  -0.00     0.02  -0.00   0.01
  32   1     0.01   0.00   0.01    -0.00   0.00  -0.00     0.02   0.01   0.02
  33   1    -0.01   0.02  -0.01    -0.00  -0.00   0.00    -0.00  -0.01   0.00
  34   1    -0.01  -0.01   0.00     0.00   0.00   0.00     0.00  -0.00  -0.00
  35   1    -0.01   0.01   0.00     0.00  -0.00  -0.00     0.00  -0.01  -0.00
  36   1     0.01  -0.00  -0.01    -0.00   0.00   0.00    -0.01   0.00   0.01
  37   1     0.01  -0.01  -0.01    -0.00   0.00   0.00    -0.01   0.01   0.01
  38   1    -0.00   0.01  -0.01     0.00  -0.00   0.00     0.01  -0.01   0.02
  39   1     0.01  -0.00   0.01    -0.00  -0.00  -0.00    -0.01   0.00  -0.00
  40   1    -0.00   0.00  -0.01     0.00  -0.00   0.00    -0.01   0.00  -0.00
  41   1     0.01   0.00  -0.00    -0.00  -0.00   0.00     0.00  -0.00  -0.00
  42   1     0.00  -0.00  -0.00     0.00   0.00   0.00    -0.00   0.01   0.00
  43   8    -0.01   0.01   0.00     0.01  -0.02  -0.01    -0.14   0.40   0.23
  44   6     0.01   0.01  -0.01    -0.01  -0.01   0.01    -0.10   0.23  -0.35
  45   8     0.00  -0.00  -0.01    -0.00   0.01   0.02     0.13  -0.21  -0.39
  46   6    -0.01  -0.01   0.01     0.01   0.01  -0.02     0.09  -0.28   0.40
  47   1     0.00  -0.01   0.01    -0.01   0.02  -0.02     0.01  -0.11   0.10
  48   1     0.00   0.01  -0.01    -0.00  -0.01   0.01     0.01  -0.15   0.17
  49   1     0.01  -0.00   0.00    -0.01   0.00  -0.01    -0.01  -0.09   0.13
  50   8    -0.00  -0.00   0.00     0.00   0.00  -0.00    -0.00   0.00   0.02
  51   8     0.00   0.01  -0.01    -0.00  -0.01   0.02    -0.01  -0.02   0.05
  52   6     0.00  -0.01   0.00    -0.01   0.01  -0.00    -0.03   0.03   0.01
  53   8    -0.00  -0.00   0.01     0.01   0.00  -0.02    -0.00   0.03  -0.04
  54   6    -0.01   0.01  -0.00     0.01  -0.01   0.00     0.04  -0.03  -0.01
  55   1    -0.00   0.00   0.00     0.01  -0.00  -0.00     0.01  -0.00  -0.00
  56   1    -0.00   0.00   0.00     0.01  -0.00  -0.00     0.03  -0.01  -0.00
  57   1     0.00  -0.00   0.00    -0.00   0.00  -0.00     0.01  -0.00   0.00
                     70                     71                     72
                        a                      a                      a 
 Frequencies --   951.4539               960.3434               962.2634
 Red. masses --     5.6690                11.2808                 5.0997
 Frc consts  --     0.0000                 0.0000                 0.0000
 IR Inten    --     1.1246                 3.5815                 7.9898
 Raman Activ --     0.0000                 0.0000                 0.0000
 Depolar     --     0.0000                 0.0000                 0.0000
 Atom AN      X      Y      Z        X      Y      Z        X      Y      Z
   1  53     0.00  -0.00  -0.00     0.01   0.02   0.01     0.00  -0.00  -0.01
   2   6    -0.00  -0.00  -0.00    -0.22  -0.27  -0.19     0.03   0.03   0.02
   3   6     0.00   0.01  -0.00     0.26   0.25  -0.24    -0.03  -0.03   0.03
   4   6     0.00  -0.00   0.01    -0.06   0.03   0.42     0.00  -0.00  -0.05
   5   6     0.00  -0.00   0.01    -0.02   0.01   0.32     0.00   0.00  -0.04
   6   1     0.00  -0.00  -0.00     0.10   0.05  -0.05    -0.02   0.00   0.00
   7   6     0.00   0.00  -0.00     0.20   0.17  -0.17    -0.02  -0.02   0.02
   8   1    -0.00   0.00   0.00     0.02  -0.01   0.12    -0.00   0.00  -0.01
   9   6    -0.00  -0.00  -0.00    -0.23  -0.26  -0.19     0.03   0.03   0.02
  10   1    -0.00   0.00   0.00    -0.03   0.01   0.08     0.01  -0.00  -0.01
  11   1     0.00   0.00  -0.00     0.04   0.05  -0.06    -0.00  -0.01   0.01
  12   1    -0.00  -0.00  -0.00    -0.06  -0.07  -0.05     0.01   0.01   0.01
  13   1    -0.00   0.04   0.02    -0.00  -0.00  -0.00    -0.02  -0.00  -0.01
  14   8    -0.01   0.00   0.01     0.00   0.00  -0.00     0.00  -0.00  -0.00
  15   7     0.01   0.11   0.07     0.01  -0.02  -0.01     0.03   0.02   0.03
  16   6     0.19   0.14   0.01     0.02  -0.02   0.04     0.13  -0.00   0.06
  17   6    -0.16   0.03   0.12     0.03  -0.00  -0.00     0.16  -0.11   0.14
  18   6    -0.01  -0.03   0.13    -0.00  -0.00  -0.00    -0.02  -0.03   0.11
  19   6     0.18   0.18   0.02    -0.02   0.05  -0.02     0.02   0.16  -0.04
  20   6    -0.12  -0.20  -0.18    -0.00  -0.05   0.01    -0.02  -0.15  -0.07
  21   6     0.01   0.11  -0.08    -0.00  -0.02   0.02    -0.01  -0.03   0.04
  22   6     0.10  -0.21  -0.08    -0.01   0.03   0.02    -0.04   0.09   0.27
  23   6    -0.16   0.06   0.11     0.01   0.00  -0.02    -0.03  -0.04  -0.32
  24   6    -0.00  -0.07  -0.04     0.01   0.02  -0.01     0.05   0.04  -0.12
  25   1    -0.00   0.02   0.05    -0.01  -0.01   0.00    -0.04  -0.04   0.04
  26   1    -0.05  -0.04   0.02     0.00   0.00  -0.00    -0.03  -0.03   0.02
  27   1    -0.17   0.07  -0.16    -0.01   0.00  -0.02    -0.09   0.04  -0.09
  28   1     0.12  -0.31   0.22     0.01  -0.03   0.01     0.05  -0.14   0.08
  29   1    -0.16   0.03  -0.09    -0.03   0.03  -0.04    -0.11   0.05  -0.09
  30   1    -0.03   0.03   0.02     0.04   0.05   0.03     0.04   0.08   0.06
  31   1    -0.05   0.02  -0.01    -0.04  -0.01  -0.03    -0.06   0.03  -0.02
  32   1    -0.19  -0.10  -0.12    -0.03  -0.00  -0.03    -0.15  -0.07  -0.10
  33   1     0.05   0.01  -0.05    -0.01  -0.00   0.01     0.01  -0.01   0.00
  34   1    -0.00   0.05  -0.00    -0.01  -0.01   0.01    -0.07  -0.00   0.07
  35   1     0.03   0.03   0.02    -0.01  -0.00  -0.00    -0.24   0.16  -0.03
  36   1     0.03   0.03   0.00     0.00  -0.01  -0.01     0.21  -0.20  -0.18
  37   1     0.18  -0.12  -0.06    -0.03   0.02   0.01    -0.19   0.16  -0.05
  38   1    -0.11   0.07  -0.31     0.01  -0.01   0.04     0.08   0.01   0.23
  39   1     0.15  -0.09   0.10    -0.02   0.01  -0.02    -0.12   0.10  -0.07
  40   1     0.13  -0.04   0.05    -0.02   0.01  -0.01    -0.23   0.12  -0.21
  41   1     0.00   0.02   0.01    -0.01  -0.01   0.01    -0.09  -0.02   0.05
  42   1    -0.00  -0.10  -0.07     0.02   0.01   0.01     0.11  -0.05   0.01
  43   8    -0.01   0.04   0.02     0.00  -0.02  -0.02    -0.01   0.02   0.01
  44   6    -0.01   0.02  -0.03     0.02   0.00   0.01    -0.00   0.01  -0.01
  45   8     0.01  -0.02  -0.04    -0.01   0.01   0.01     0.01  -0.01  -0.02
  46   6     0.01  -0.03   0.04    -0.02   0.01  -0.01     0.01  -0.01   0.01
  47   1     0.00  -0.01   0.01     0.01  -0.01   0.02    -0.00  -0.00   0.00
  48   1     0.00  -0.01   0.02     0.00   0.01  -0.02    -0.00  -0.00   0.01
  49   1     0.00  -0.01   0.01     0.01   0.01  -0.01    -0.00  -0.01   0.01
  50   8    -0.00  -0.00  -0.00    -0.01  -0.01   0.01    -0.01  -0.00   0.01
  51   8    -0.00  -0.00   0.01     0.03   0.03  -0.06    -0.01  -0.00   0.01
  52   6    -0.01   0.01   0.00     0.04  -0.04  -0.01    -0.01   0.01   0.00
  53   8    -0.00   0.01  -0.01     0.01  -0.04   0.05    -0.00   0.01  -0.01
  54   6     0.01  -0.01  -0.00    -0.05   0.04   0.02     0.01  -0.01  -0.00
  55   1     0.00  -0.00  -0.00    -0.01   0.00   0.00     0.00  -0.00  -0.00
  56   1     0.01  -0.00  -0.00    -0.04   0.02  -0.00     0.01  -0.00  -0.00
  57   1     0.00  -0.00   0.00    -0.02   0.01  -0.01     0.00  -0.00   0.00
                     73                     74                     75
                        a                      a                      a 
 Frequencies --   966.3627               967.8591               975.5229
 Red. masses --     5.7149                12.6639                 5.5992
 Frc consts  --     0.0000                 0.0000                 0.0000
 IR Inten    --     2.1506                81.7018                 6.0908
 Raman Activ --     0.0000                 0.0000                 0.0000
 Depolar     --     0.0000                 0.0000                 0.0000
 Atom AN      X      Y      Z        X      Y      Z        X      Y      Z
   1  53    -0.00   0.01   0.00     0.02  -0.00  -0.00     0.00   0.00  -0.00
   2   6    -0.03  -0.03  -0.03    -0.04  -0.04  -0.03     0.00   0.00   0.00
   3   6     0.02   0.04  -0.03     0.04   0.04  -0.03     0.00  -0.00   0.00
   4   6    -0.00  -0.00   0.05    -0.02   0.01   0.07    -0.00   0.00   0.00
   5   6     0.00  -0.00   0.04    -0.00   0.00   0.05    -0.00   0.00  -0.00
   6   1     0.04  -0.02  -0.00     0.01   0.01  -0.00    -0.01   0.00  -0.01
   7   6     0.02   0.02  -0.02     0.03   0.02  -0.02    -0.00  -0.00   0.00
   8   1    -0.00   0.00   0.01     0.04  -0.01   0.02     0.00  -0.00   0.00
   9   6    -0.02  -0.03  -0.02    -0.03  -0.04  -0.03     0.00   0.00   0.00
  10   1    -0.02   0.01   0.01    -0.01   0.00   0.01     0.00  -0.00   0.00
  11   1     0.00   0.01  -0.01    -0.01   0.01  -0.01    -0.00  -0.00  -0.00
  12   1    -0.01  -0.01  -0.01    -0.01  -0.01  -0.01     0.00   0.00  -0.00
  13   1     0.00   0.05   0.03    -0.01   0.00   0.01    -0.03  -0.01  -0.01
  14   8     0.01  -0.01  -0.00    -0.01  -0.00   0.01     0.05   0.03  -0.03
  15   7    -0.03   0.18   0.09     0.01   0.02   0.00    -0.09  -0.01  -0.02
  16   6    -0.04   0.11  -0.21    -0.01   0.02  -0.02     0.02  -0.22  -0.00
  17   6    -0.05  -0.06   0.16    -0.01  -0.01   0.01    -0.01   0.11   0.19
  18   6    -0.02   0.03   0.12    -0.00   0.00   0.01    -0.02   0.03   0.16
  19   6     0.13  -0.28   0.03     0.02  -0.03   0.00    -0.18   0.01  -0.12
  20   6     0.00   0.19  -0.11    -0.00   0.02  -0.01     0.16   0.00   0.02
  21   6     0.01   0.09  -0.10     0.00   0.01  -0.01    -0.02  -0.16   0.04
  22   6     0.04  -0.13   0.12    -0.01  -0.01   0.01     0.17  -0.03  -0.03
  23   6    -0.13  -0.02  -0.11    -0.01  -0.00  -0.01    -0.19   0.12  -0.02
  24   6    -0.01  -0.10  -0.04    -0.00  -0.01  -0.00     0.07   0.16  -0.25
  25   1     0.05   0.05   0.01     0.00   0.01   0.00    -0.10  -0.11   0.05
  26   1    -0.04  -0.03   0.04    -0.01  -0.00   0.00     0.02   0.02   0.05
  27   1     0.02   0.06   0.06    -0.00   0.01   0.00     0.08  -0.01   0.07
  28   1    -0.07   0.13   0.00    -0.01   0.01   0.00    -0.10   0.22  -0.16
  29   1     0.19  -0.17   0.24     0.02  -0.02   0.03     0.08   0.01   0.03
  30   1    -0.23  -0.24  -0.11    -0.02  -0.03  -0.01     0.04   0.08   0.09
  31   1     0.22   0.05   0.19     0.02   0.00   0.02     0.05   0.09   0.08
  32   1     0.08  -0.02   0.13     0.01   0.00   0.01    -0.12  -0.06  -0.05
  33   1     0.07  -0.01  -0.05     0.00  -0.00  -0.00     0.02  -0.06   0.00
  34   1    -0.00   0.06   0.01     0.00   0.00  -0.00    -0.10  -0.00   0.12
  35   1    -0.16   0.16   0.01    -0.02   0.02   0.00     0.08  -0.12  -0.04
  36   1     0.17  -0.10  -0.12     0.01  -0.01  -0.01     0.03  -0.11  -0.03
  37   1     0.05  -0.01  -0.09     0.00  -0.00  -0.01    -0.11   0.05   0.03
  38   1    -0.01   0.06  -0.06     0.00   0.00   0.00    -0.12   0.05  -0.31
  39   1     0.05   0.00   0.06    -0.00   0.00   0.00     0.09  -0.07   0.02
  40   1    -0.05   0.06  -0.12    -0.01   0.01  -0.01     0.14  -0.06   0.06
  41   1     0.01   0.04   0.01     0.00   0.00   0.00    -0.23  -0.08   0.11
  42   1    -0.02  -0.12  -0.08    -0.00  -0.01  -0.01     0.30  -0.05   0.10
  43   8     0.00  -0.01  -0.01     0.02  -0.04  -0.04     0.00  -0.00  -0.00
  44   6     0.00  -0.01   0.01     0.02  -0.02   0.04    -0.01  -0.01   0.00
  45   8    -0.00   0.00   0.01    -0.02   0.03   0.04    -0.00   0.00   0.00
  46   6    -0.00   0.01  -0.01    -0.02   0.03  -0.04     0.01   0.00  -0.01
  47   1    -0.00  -0.00  -0.00     0.00   0.01  -0.00    -0.00   0.01  -0.01
  48   1     0.00   0.00  -0.00     0.00   0.02  -0.02    -0.00  -0.01   0.01
  49   1    -0.00   0.00  -0.01     0.00   0.01  -0.02    -0.00   0.00  -0.00
  50   8     0.00  -0.00  -0.01     0.01  -0.01   0.00     0.01  -0.00   0.01
  51   8     0.02   0.02  -0.05    -0.20  -0.19   0.41    -0.00  -0.00   0.01
  52   6     0.03  -0.04  -0.01    -0.29   0.28   0.09    -0.00   0.01   0.00
  53   8     0.00  -0.03   0.05    -0.01   0.26  -0.40    -0.00   0.00  -0.01
  54   6    -0.04   0.04   0.01     0.33  -0.28  -0.10     0.01  -0.01  -0.00
  55   1    -0.01  -0.00   0.00     0.10  -0.01  -0.01    -0.00   0.00   0.00
  56   1    -0.03   0.02   0.00     0.25  -0.12  -0.01     0.01  -0.00   0.00
  57   1    -0.01   0.00  -0.01     0.12  -0.05   0.04     0.00  -0.00   0.00
                     76                     77                     78
                        a                      a                      a 
 Frequencies --  1000.6865              1002.5853              1005.6992
 Red. masses --     6.0449                 4.3293                 5.1949
 Frc consts  --     0.0000                 0.0000                 0.0000
 IR Inten    --    30.6946                 0.2978                 9.2138
 Raman Activ --     0.0000                 0.0000                 0.0000
 Depolar     --     0.0000                 0.0000                 0.0000
 Atom AN      X      Y      Z        X      Y      Z        X      Y      Z
   1  53     0.01  -0.00   0.00     0.00   0.00  -0.00    -0.00  -0.00   0.00
   2   6     0.00   0.01   0.01    -0.00  -0.00  -0.00    -0.01  -0.01  -0.01
   3   6    -0.01  -0.01   0.01     0.00   0.00  -0.00     0.01   0.01  -0.01
   4   6     0.02  -0.01  -0.01    -0.00   0.00   0.00    -0.00   0.00   0.01
   5   6     0.00   0.00  -0.01     0.00  -0.00   0.00    -0.00  -0.00   0.01
   6   1    -0.00  -0.00   0.00     0.01  -0.00   0.00     0.01   0.00   0.00
   7   6    -0.02  -0.01   0.01     0.00   0.00  -0.00     0.01   0.00  -0.00
   8   1    -0.02   0.05  -0.01     0.00  -0.00   0.00     0.01  -0.01   0.00
   9   6     0.00   0.01   0.00    -0.00  -0.00  -0.00    -0.01  -0.01  -0.00
  10   1     0.01   0.00  -0.00    -0.00   0.00   0.00    -0.00  -0.00   0.00
  11   1     0.01  -0.01   0.01    -0.00   0.00  -0.00    -0.00   0.00  -0.00
  12   1     0.00   0.00  -0.00    -0.00  -0.00  -0.00    -0.00  -0.00   0.00
  13   1     0.00   0.01   0.01     0.01   0.03   0.02     0.01   0.01   0.01
  14   8    -0.01  -0.00   0.00    -0.05  -0.04   0.03     0.00   0.00  -0.00
  15   7     0.01   0.02   0.01     0.11   0.13   0.11    -0.00   0.00   0.00
  16   6     0.01  -0.01  -0.01     0.06   0.05  -0.01    -0.00   0.00  -0.00
  17   6     0.00  -0.00  -0.00     0.05  -0.10  -0.10    -0.00  -0.00  -0.00
  18   6     0.01   0.01   0.01     0.07  -0.10   0.04    -0.00   0.00  -0.00
  19   6    -0.01  -0.00  -0.01     0.03   0.00   0.00    -0.00  -0.00   0.00
  20   6     0.00  -0.00   0.01    -0.06   0.01  -0.08     0.00  -0.00  -0.00
  21   6     0.02  -0.01  -0.01     0.07   0.01   0.05     0.00   0.00  -0.00
  22   6     0.01   0.01  -0.01     0.04   0.24  -0.14    -0.00  -0.00  -0.00
  23   6    -0.02  -0.03  -0.00    -0.13  -0.27   0.00     0.00  -0.00   0.00
  24   6    -0.02   0.00  -0.00    -0.09   0.03  -0.02    -0.00  -0.00   0.00
  25   1    -0.00   0.00   0.01    -0.06   0.01   0.09     0.00   0.00  -0.00
  26   1     0.01   0.02  -0.00    -0.00   0.03  -0.09     0.00   0.00   0.00
  27   1     0.00  -0.00   0.00    -0.02   0.01  -0.01     0.00  -0.00   0.00
  28   1    -0.01   0.01  -0.00     0.01  -0.03   0.02     0.00   0.00  -0.00
  29   1     0.00  -0.00   0.01    -0.01  -0.00  -0.00     0.00   0.00  -0.00
  30   1     0.00   0.00   0.00    -0.08  -0.09  -0.05     0.00   0.00   0.00
  31   1    -0.01  -0.00  -0.00     0.04  -0.00   0.03     0.00   0.00   0.00
  32   1    -0.00   0.00  -0.00     0.01  -0.02   0.03    -0.00  -0.00  -0.00
  33   1     0.01  -0.00  -0.01    -0.01   0.05  -0.04    -0.00   0.00  -0.00
  34   1    -0.01  -0.00   0.00    -0.10  -0.05   0.08     0.00  -0.00  -0.00
  35   1     0.01  -0.02  -0.00     0.23  -0.30  -0.06    -0.00   0.00   0.00
  36   1    -0.01  -0.00   0.01    -0.20   0.03   0.13    -0.00   0.00   0.00
  37   1    -0.02   0.01   0.01    -0.22   0.10   0.16     0.01  -0.00  -0.00
  38   1     0.00   0.02  -0.01     0.07   0.13   0.01     0.00  -0.00   0.00
  39   1     0.03  -0.00   0.04     0.23  -0.02   0.32     0.00  -0.00   0.00
  40   1    -0.01   0.02  -0.03    -0.12   0.18  -0.33    -0.00   0.00   0.00
  41   1    -0.01   0.00   0.00    -0.07   0.03   0.05     0.00  -0.00  -0.00
  42   1    -0.00  -0.01  -0.00     0.02  -0.05  -0.00    -0.00  -0.00  -0.00
  43   8    -0.10   0.04   0.01     0.01  -0.01  -0.00    -0.08   0.27  -0.01
  44   6     0.47   0.16   0.02    -0.04  -0.02   0.00    -0.03  -0.06   0.06
  45   8    -0.09  -0.05  -0.04     0.01   0.01   0.01    -0.00  -0.02   0.16
  46   6    -0.37  -0.19  -0.01     0.03   0.02  -0.00     0.17  -0.33  -0.30
  47   1     0.16  -0.15   0.33    -0.01   0.01  -0.03    -0.07   0.42  -0.29
  48   1     0.04   0.37  -0.41    -0.00  -0.03   0.03    -0.09   0.20  -0.00
  49   1     0.21  -0.08   0.17    -0.02   0.01  -0.01    -0.01  -0.29   0.51
  50   8    -0.00  -0.00   0.00    -0.01  -0.00   0.00    -0.00   0.00   0.00
  51   8     0.00   0.00   0.01     0.00   0.00  -0.01     0.01  -0.00   0.00
  52   6    -0.02  -0.03  -0.02     0.00  -0.00   0.00    -0.00  -0.00  -0.00
  53   8    -0.00   0.01  -0.00    -0.00   0.00   0.00    -0.00   0.01  -0.00
  54   6     0.02   0.02   0.02    -0.00  -0.00   0.00    -0.00  -0.00   0.01
  55   1     0.02  -0.02  -0.01     0.01  -0.00  -0.00     0.02  -0.01  -0.00
  56   1    -0.04   0.02  -0.00     0.00   0.00  -0.00    -0.00   0.00  -0.00
  57   1     0.01  -0.02  -0.01    -0.01   0.00  -0.00    -0.01   0.01  -0.00
                     79                     80                     81
                        a                      a                      a 
 Frequencies --  1007.8217              1008.3519              1011.1886
 Red. masses --     6.3023                 4.2960                 4.9469
 Frc consts  --     0.0000                 0.0000                 0.0000
 IR Inten    --    32.6602                 4.1195                 0.8265
 Raman Activ --     0.0000                 0.0000                 0.0000
 Depolar     --     0.0000                 0.0000                 0.0000
 Atom AN      X      Y      Z        X      Y      Z        X      Y      Z
   1  53    -0.00   0.00   0.00     0.00  -0.00   0.00     0.00  -0.00   0.00
   2   6     0.00  -0.00   0.00     0.00   0.01   0.00     0.00   0.00   0.00
   3   6    -0.00  -0.00   0.00     0.00  -0.01   0.00    -0.00  -0.00   0.00
   4   6     0.00  -0.00  -0.00    -0.00   0.00  -0.00    -0.00   0.00  -0.00
   5   6    -0.00  -0.00   0.00    -0.00   0.00  -0.01     0.00   0.00  -0.00
   6   1    -0.00  -0.00  -0.00    -0.01   0.02   0.00    -0.00   0.00   0.00
   7   6    -0.00   0.00  -0.00    -0.00  -0.00   0.00    -0.00  -0.00   0.00
   8   1    -0.01  -0.00  -0.00     0.00  -0.00  -0.00     0.01  -0.00   0.00
   9   6     0.00   0.00   0.00    -0.00   0.00   0.00     0.00  -0.00  -0.00
  10   1    -0.00  -0.00   0.00     0.00  -0.00  -0.00     0.00   0.00  -0.00
  11   1     0.00  -0.00   0.00     0.00  -0.00   0.00    -0.00   0.00   0.00
  12   1     0.00   0.00   0.00    -0.00  -0.00   0.00     0.00   0.00  -0.00
  13   1     0.00  -0.01  -0.01    -0.01  -0.01  -0.00    -0.00   0.00   0.00
  14   8     0.01   0.01  -0.01     0.05   0.02  -0.04    -0.00  -0.00   0.00
  15   7    -0.01  -0.00  -0.00    -0.10   0.06   0.03     0.00   0.01  -0.01
  16   6    -0.01  -0.01  -0.00    -0.03  -0.08  -0.03    -0.00  -0.01   0.00
  17   6    -0.01   0.01   0.00    -0.04   0.02   0.00    -0.00  -0.00   0.00
  18   6    -0.01  -0.01  -0.00    -0.13  -0.09  -0.02    -0.00   0.00   0.00
  19   6     0.03  -0.01  -0.04     0.19  -0.05  -0.25     0.00  -0.00  -0.01
  20   6    -0.02   0.00   0.04    -0.07  -0.01   0.21    -0.00  -0.00   0.01
  21   6    -0.02   0.01  -0.01    -0.15   0.03   0.01    -0.00  -0.00  -0.00
  22   6     0.02   0.01   0.00     0.10   0.03  -0.01    -0.00  -0.00   0.00
  23   6    -0.01  -0.00   0.01    -0.01  -0.01   0.02     0.00   0.00  -0.00
  24   6     0.03   0.00   0.00     0.20   0.04   0.01     0.00   0.00  -0.00
  25   1     0.01   0.01  -0.01     0.06   0.03  -0.05     0.00  -0.00  -0.00
  26   1    -0.01  -0.02   0.01    -0.10  -0.12   0.04     0.00   0.00   0.00
  27   1    -0.04   0.04  -0.03    -0.26   0.30  -0.18    -0.01   0.01  -0.00
  28   1    -0.01  -0.00   0.02    -0.07   0.01   0.15    -0.00   0.00   0.00
  29   1     0.01  -0.04   0.04     0.09  -0.24   0.29     0.00  -0.01   0.01
  30   1     0.03   0.01  -0.01     0.17   0.10  -0.01     0.01   0.01   0.00
  31   1    -0.03  -0.03  -0.04    -0.18  -0.15  -0.22    -0.01  -0.00  -0.01
  32   1     0.04   0.03   0.01     0.19   0.15   0.03     0.00   0.00  -0.00
  33   1    -0.01  -0.01   0.02    -0.09  -0.03   0.14     0.00  -0.00   0.00
  34   1     0.00   0.02   0.00     0.00   0.09   0.02     0.00   0.00  -0.00
  35   1     0.01  -0.02  -0.01     0.05  -0.09  -0.04    -0.00   0.00   0.00
  36   1     0.01  -0.02  -0.01     0.01  -0.07  -0.02     0.00   0.00  -0.00
  37   1    -0.02   0.01   0.01    -0.11   0.06   0.04     0.00  -0.00  -0.00
  38   1    -0.00   0.00  -0.01    -0.00   0.00  -0.02    -0.00  -0.00  -0.00
  39   1     0.01  -0.00   0.01     0.01  -0.01   0.02    -0.00  -0.00  -0.00
  40   1     0.00   0.00  -0.00     0.01  -0.00   0.01     0.00  -0.00   0.00
  41   1     0.01   0.01   0.01     0.04   0.06   0.04    -0.00  -0.00   0.00
  42   1     0.00  -0.00  -0.00     0.05  -0.02  -0.02     0.00   0.00   0.00
  43   8    -0.01   0.00   0.00    -0.00   0.01   0.00     0.01  -0.01  -0.00
  44   6     0.04   0.01   0.00    -0.00   0.00  -0.00    -0.01  -0.00  -0.00
  45   8    -0.01  -0.00  -0.00     0.00  -0.00  -0.00     0.00   0.00  -0.00
  46   6    -0.03  -0.02  -0.00     0.00  -0.00   0.00     0.00   0.01   0.01
  47   1     0.01  -0.01   0.02    -0.00   0.00  -0.00    -0.00  -0.01   0.00
  48   1     0.00   0.03  -0.03    -0.00  -0.00   0.00     0.00  -0.01   0.01
  49   1     0.02  -0.01   0.02    -0.00  -0.00   0.00    -0.00   0.01  -0.02
  50   8    -0.00   0.00  -0.00     0.01   0.00   0.00    -0.00   0.00   0.00
  51   8     0.02  -0.03  -0.15    -0.01   0.01   0.02     0.16  -0.01  -0.13
  52   6     0.29   0.31   0.24    -0.04  -0.05  -0.04    -0.03   0.01  -0.03
  53   8    -0.03  -0.13   0.03     0.01   0.02  -0.00    -0.11   0.16  -0.11
  54   6    -0.30  -0.23  -0.17     0.05   0.04   0.02    -0.06  -0.23   0.42
  55   1    -0.14   0.28   0.08     0.01  -0.04  -0.01     0.53  -0.20  -0.15
  56   1     0.49  -0.19  -0.01    -0.08   0.03   0.00     0.02   0.09  -0.15
  57   1    -0.21   0.27   0.13     0.04  -0.05  -0.02    -0.45   0.29  -0.09
                     82                     83                     84
                        a                      a                      a 
 Frequencies --  1013.9812              1029.0615              1049.6368
 Red. masses --     5.6602                 7.6006                 6.2467
 Frc consts  --     0.0000                 0.0000                 0.0000
 IR Inten    --    10.6844                 6.1553                 3.6703
 Raman Activ --     0.0000                 0.0000                 0.0000
 Depolar     --     0.0000                 0.0000                 0.0000
 Atom AN      X      Y      Z        X      Y      Z        X      Y      Z
   1  53     0.00  -0.00   0.00     0.00  -0.00   0.00    -0.00  -0.00   0.00
   2   6    -0.00  -0.00  -0.00    -0.00  -0.00  -0.00    -0.00  -0.00  -0.00
   3   6    -0.01   0.00  -0.00    -0.01   0.01  -0.00    -0.00   0.00   0.00
   4   6     0.00  -0.00   0.00     0.00  -0.00   0.00     0.00   0.00  -0.01
   5   6     0.00  -0.00   0.01     0.00   0.00   0.01     0.00  -0.00  -0.01
   6   1     0.01  -0.02  -0.00     0.01  -0.02  -0.00     0.01   0.00   0.02
   7   6     0.00   0.00  -0.00     0.00   0.00  -0.00     0.00   0.00   0.00
   8   1    -0.00   0.00  -0.00     0.00   0.00   0.00     0.00   0.00  -0.00
   9   6     0.00   0.00  -0.00     0.00  -0.00  -0.00    -0.00  -0.01  -0.00
  10   1    -0.00   0.00   0.00    -0.00   0.00   0.00    -0.00   0.00  -0.00
  11   1    -0.00   0.00  -0.00    -0.00   0.00  -0.00     0.00   0.00   0.01
  12   1     0.00   0.00  -0.00     0.00   0.00  -0.00    -0.00  -0.00   0.00
  13   1     0.01   0.01  -0.01     0.01  -0.23  -0.14     0.01  -0.03   0.01
  14   8     0.01   0.03  -0.03     0.02   0.08  -0.01    -0.13  -0.10   0.17
  15   7    -0.03  -0.05   0.02    -0.00  -0.53  -0.27     0.08   0.06  -0.26
  16   6     0.02   0.12  -0.05    -0.06   0.16   0.04     0.08   0.02   0.03
  17   6     0.02  -0.00  -0.09     0.03   0.10   0.08     0.12  -0.02   0.03
  18   6    -0.18  -0.26  -0.00     0.05   0.01  -0.02     0.13  -0.06   0.19
  19   6     0.07  -0.02   0.05     0.05   0.06   0.11     0.08   0.04  -0.09
  20   6     0.06   0.07  -0.20    -0.13   0.14   0.01    -0.19   0.09   0.02
  21   6    -0.19   0.12   0.26    -0.04   0.03  -0.01     0.13  -0.14   0.14
  22   6    -0.01   0.06  -0.10     0.16   0.11   0.10    -0.17  -0.03  -0.06
  23   6     0.15   0.08  -0.00    -0.08   0.06   0.05     0.06   0.11  -0.08
  24   6     0.26   0.03  -0.08    -0.01  -0.05   0.00    -0.12   0.11  -0.18
  25   1    -0.08  -0.09   0.01     0.05   0.08   0.01    -0.13  -0.04   0.17
  26   1    -0.24  -0.24   0.01    -0.07  -0.06  -0.01     0.05   0.09  -0.08
  27   1    -0.01  -0.00  -0.01     0.01  -0.05  -0.01    -0.10   0.11  -0.08
  28   1     0.03  -0.06   0.05     0.07  -0.14   0.06    -0.00  -0.04   0.07
  29   1    -0.01  -0.01   0.00    -0.08   0.06  -0.09     0.01  -0.05   0.07
  30   1    -0.19  -0.13  -0.02    -0.11  -0.16  -0.13    -0.08  -0.15  -0.14
  31   1     0.19   0.13   0.21     0.04  -0.07  -0.00    -0.02  -0.12  -0.07
  32   1    -0.13  -0.12   0.00     0.18   0.08   0.12     0.22   0.10   0.13
  33   1    -0.24   0.09   0.20     0.07  -0.02  -0.05     0.08   0.03  -0.14
  34   1    -0.07  -0.00   0.06    -0.04   0.05   0.05    -0.16  -0.13   0.14
  35   1     0.09  -0.08  -0.00    -0.01  -0.09  -0.07    -0.00   0.08   0.06
  36   1    -0.10   0.06   0.07     0.10  -0.19  -0.09    -0.09   0.16   0.08
  37   1    -0.01  -0.01   0.05    -0.23   0.16   0.05     0.18  -0.11  -0.02
  38   1     0.01  -0.09   0.11    -0.06   0.03  -0.16    -0.01  -0.05   0.03
  39   1    -0.13   0.03  -0.16     0.06  -0.04   0.03    -0.11   0.02  -0.15
  40   1     0.02  -0.07   0.13     0.07  -0.03   0.05     0.02  -0.05   0.09
  41   1    -0.01  -0.05   0.02     0.02   0.06   0.02    -0.19  -0.04   0.08
  42   1     0.14  -0.01   0.02    -0.02  -0.01  -0.01     0.14  -0.04   0.05
  43   8    -0.01   0.00   0.00    -0.00   0.00  -0.00     0.00   0.00  -0.00
  44   6     0.03   0.01   0.00     0.01   0.01   0.00     0.00   0.00   0.00
  45   8    -0.01  -0.01  -0.01    -0.00  -0.00  -0.00     0.00   0.00   0.00
  46   6    -0.02  -0.01   0.00    -0.00  -0.01  -0.00    -0.00  -0.00  -0.00
  47   1     0.01  -0.01   0.02     0.00   0.00   0.00     0.00   0.00  -0.00
  48   1     0.00   0.02  -0.02    -0.00   0.01  -0.00    -0.00   0.00  -0.00
  49   1     0.01  -0.00   0.01     0.00  -0.00   0.01     0.00  -0.00   0.00
  50   8    -0.00  -0.00  -0.00    -0.00   0.03   0.02     0.01   0.01  -0.01
  51   8     0.00   0.00  -0.01     0.00   0.00   0.01    -0.01   0.01  -0.01
  52   6     0.01   0.00   0.00    -0.01  -0.01  -0.01     0.00  -0.00   0.00
  53   8    -0.00  -0.00   0.00    -0.00   0.01  -0.00    -0.00  -0.00   0.01
  54   6    -0.01  -0.01   0.00     0.01   0.00   0.01    -0.00   0.00  -0.00
  55   1     0.00   0.00  -0.00     0.01  -0.01  -0.00    -0.01   0.00   0.00
  56   1     0.01  -0.00  -0.00    -0.02   0.01  -0.00    -0.00  -0.00   0.00
  57   1    -0.01   0.01   0.00     0.00  -0.01  -0.01     0.00  -0.00   0.00
                     85                     86                     87
                        a                      a                      a 
 Frequencies --  1080.3689              1088.9847              1092.9864
 Red. masses --     7.3071                12.2641                 4.4740
 Frc consts  --     0.0000                 0.0000                 0.0000
 IR Inten    --     1.7764                 3.9857                 6.1367
 Raman Activ --     0.0000                 0.0000                 0.0000
 Depolar     --     0.0000                 0.0000                 0.0000
 Atom AN      X      Y      Z        X      Y      Z        X      Y      Z
   1  53    -0.00  -0.00  -0.00     0.00  -0.00   0.00    -0.00   0.00  -0.00
   2   6     0.04   0.05   0.03     0.02   0.01   0.01     0.00   0.00   0.00
   3   6     0.10   0.12   0.05     0.01   0.01  -0.00     0.00  -0.00  -0.00
   4   6     0.08   0.11   0.12     0.00   0.01   0.03    -0.00  -0.00  -0.01
   5   6     0.11   0.05  -0.36     0.01   0.01  -0.03    -0.00  -0.00   0.00
   6   1     0.12   0.12   0.23    -0.00  -0.00  -0.01    -0.01   0.01  -0.00
   7   6    -0.21  -0.16   0.30    -0.03  -0.02   0.03     0.00   0.00  -0.01
   8   1     0.23   0.21   0.03     0.03   0.02   0.01    -0.01  -0.01  -0.00
   9   6    -0.24  -0.30  -0.23    -0.02  -0.02  -0.03     0.00   0.01   0.01
  10   1     0.23   0.23  -0.11     0.03   0.03  -0.01    -0.01  -0.01   0.00
  11   1     0.01   0.07   0.32    -0.01  -0.00   0.02     0.00  -0.00  -0.00
  12   1    -0.07  -0.08  -0.08     0.00  -0.00  -0.02    -0.00  -0.00   0.01
  13   1    -0.00   0.00   0.00    -0.03   0.01  -0.02     0.01   0.06   0.04
  14   8    -0.02  -0.02   0.03     0.28   0.23  -0.34    -0.07  -0.05   0.08
  15   7     0.04   0.02  -0.03    -0.48  -0.27   0.42     0.12  -0.03  -0.16
  16   6     0.00   0.00  -0.01    -0.05   0.03   0.00    -0.21   0.07  -0.11
  17   6    -0.00  -0.00  -0.00     0.06  -0.03   0.04     0.21  -0.05   0.12
  18   6    -0.02   0.01   0.00     0.16  -0.04  -0.02    -0.04   0.12  -0.05
  19   6    -0.01  -0.00   0.01     0.05  -0.00  -0.02     0.02  -0.09   0.10
  20   6     0.00  -0.00  -0.00     0.01   0.00   0.01     0.14  -0.07   0.08
  21   6    -0.02   0.00  -0.01     0.16   0.04   0.07    -0.06  -0.00   0.06
  22   6     0.01   0.00   0.01    -0.07  -0.01  -0.06    -0.11   0.05  -0.08
  23   6    -0.00  -0.00   0.00     0.03   0.02  -0.07    -0.06   0.04  -0.10
  24   6     0.01  -0.01   0.00    -0.13   0.00  -0.05     0.05  -0.10  -0.03
  25   1     0.01  -0.00  -0.01     0.02   0.08   0.07     0.29   0.26  -0.12
  26   1    -0.01  -0.01   0.01     0.01   0.03  -0.11    -0.18  -0.18   0.08
  27   1     0.01  -0.01   0.01    -0.04   0.04  -0.03     0.04  -0.06   0.04
  28   1     0.00   0.00  -0.01     0.00  -0.03   0.04     0.01  -0.01  -0.00
  29   1    -0.00   0.01  -0.01     0.00  -0.04   0.04     0.02  -0.00   0.00
  30   1     0.00   0.00   0.00     0.00   0.01   0.01     0.13   0.16   0.11
  31   1     0.00   0.00   0.00    -0.00   0.00   0.00    -0.04   0.05  -0.01
  32   1    -0.01  -0.00  -0.01    -0.01  -0.00  -0.01    -0.10  -0.02  -0.08
  33   1    -0.01  -0.01   0.02     0.11   0.07  -0.17     0.16  -0.05  -0.13
  34   1     0.01   0.01  -0.00    -0.11  -0.08   0.09    -0.27   0.05   0.27
  35   1    -0.00  -0.00  -0.00     0.03   0.01   0.03     0.05  -0.00   0.03
  36   1     0.01  -0.01  -0.00    -0.07   0.09   0.05    -0.11   0.13   0.09
  37   1    -0.01   0.01   0.00     0.06  -0.05   0.01     0.07  -0.05   0.03
  38   1    -0.00   0.00  -0.01     0.01  -0.02   0.05    -0.02   0.01  -0.04
  39   1     0.00  -0.00   0.00    -0.05   0.02  -0.05    -0.01   0.00  -0.03
  40   1     0.00   0.00  -0.00    -0.02  -0.01   0.01    -0.01   0.01  -0.03
  41   1     0.01  -0.00  -0.00    -0.06   0.06   0.05     0.03   0.26   0.16
  42   1    -0.00  -0.00  -0.00     0.00  -0.03  -0.01    -0.01  -0.15  -0.10
  43   8    -0.00   0.01  -0.00    -0.01  -0.00   0.00     0.00  -0.00  -0.00
  44   6    -0.00  -0.01  -0.00     0.00   0.00  -0.00     0.00  -0.00   0.00
  45   8    -0.00   0.00  -0.00    -0.00  -0.01  -0.00     0.00   0.00   0.00
  46   6     0.00   0.00   0.00    -0.00   0.00   0.00     0.00   0.00  -0.00
  47   1    -0.00   0.00  -0.00     0.00  -0.00   0.00    -0.00   0.00  -0.00
  48   1    -0.00  -0.00   0.00     0.00  -0.00  -0.00     0.00  -0.00   0.00
  49   1    -0.00   0.00  -0.00     0.00   0.00  -0.00    -0.00   0.00  -0.00
  50   8    -0.01  -0.01  -0.00     0.00  -0.01   0.00    -0.00  -0.01  -0.01
  51   8    -0.00   0.00  -0.01     0.02  -0.02   0.01    -0.00   0.00  -0.00
  52   6     0.01   0.00   0.00    -0.00   0.01  -0.00     0.00  -0.00   0.00
  53   8    -0.00  -0.01   0.00     0.00   0.00  -0.01    -0.00  -0.00   0.00
  54   6    -0.01   0.00  -0.00     0.00  -0.01   0.00    -0.00   0.00  -0.00
  55   1    -0.01   0.00   0.00     0.00  -0.00  -0.00    -0.00   0.00   0.00
  56   1     0.00  -0.00   0.00     0.00  -0.00  -0.00     0.00  -0.00   0.00
  57   1    -0.00   0.00   0.00    -0.00   0.00   0.00     0.00   0.00   0.00
                     88                     89                     90
                        a                      a                      a 
 Frequencies --  1106.4677              1114.7518              1117.8096
 Red. masses --     8.8058                 4.9342                 3.9208
 Frc consts  --     0.0000                 0.0000                 0.0000
 IR Inten    --     0.5603                 6.2566                 0.9272
 Raman Activ --     0.0000                 0.0000                 0.0000
 Depolar     --     0.0000                 0.0000                 0.0000
 Atom AN      X      Y      Z        X      Y      Z        X      Y      Z
   1  53    -0.02  -0.03  -0.02     0.00   0.00  -0.00     0.00   0.00  -0.01
   2   6     0.34   0.39   0.27    -0.01  -0.01   0.01    -0.04  -0.02   0.11
   3   6     0.20   0.17  -0.22     0.01   0.02   0.00     0.18   0.20  -0.01
   4   6    -0.08  -0.03   0.35    -0.01  -0.01  -0.02    -0.06  -0.11  -0.21
   5   6    -0.03  -0.06  -0.20    -0.00  -0.00  -0.02    -0.01  -0.04  -0.21
   6   1    -0.03  -0.06  -0.33     0.02   0.02   0.03     0.19   0.20   0.35
   7   6    -0.15  -0.14   0.06     0.01   0.01  -0.01     0.12   0.11  -0.05
   8   1    -0.21  -0.18   0.11    -0.03  -0.03  -0.01    -0.32  -0.29  -0.05
   9   6    -0.06  -0.07  -0.07    -0.01  -0.00   0.02    -0.09  -0.07   0.15
  10   1    -0.14  -0.15  -0.06    -0.02  -0.02  -0.00    -0.18  -0.18  -0.06
  11   1    -0.10  -0.13  -0.15     0.01   0.01   0.02     0.11   0.14   0.20
  12   1    -0.02  -0.02  -0.02    -0.02  -0.01   0.04    -0.19  -0.13   0.39
  13   1     0.01   0.00   0.00    -0.00   0.03   0.02    -0.02   0.00   0.00
  14   8    -0.01  -0.01   0.01     0.01   0.01  -0.01     0.02   0.01  -0.02
  15   7     0.01   0.01  -0.02    -0.02   0.05   0.06    -0.02  -0.02   0.02
  16   6     0.00   0.00  -0.00     0.07  -0.04  -0.11    -0.00   0.00   0.01
  17   6    -0.00   0.00  -0.00    -0.06  -0.12   0.00     0.01   0.00  -0.00
  18   6    -0.00   0.00   0.00     0.15   0.20   0.10    -0.01  -0.02  -0.01
  19   6     0.00   0.00   0.00    -0.04   0.01   0.06     0.00   0.00  -0.00
  20   6    -0.00   0.00  -0.00    -0.06  -0.01   0.07     0.00   0.00  -0.01
  21   6    -0.00  -0.00   0.00    -0.16   0.17   0.13     0.02  -0.01  -0.01
  22   6     0.00   0.00   0.00     0.05   0.06  -0.03    -0.00  -0.00   0.00
  23   6     0.00   0.00   0.00     0.04   0.06  -0.01    -0.01  -0.00   0.00
  24   6     0.00  -0.00  -0.00     0.01  -0.32  -0.20    -0.01   0.03   0.02
  25   1    -0.00  -0.00   0.00     0.08   0.07   0.00    -0.01  -0.01   0.00
  26   1     0.00   0.00   0.00     0.23   0.24   0.00    -0.02  -0.02  -0.00
  27   1     0.00  -0.00   0.00     0.06  -0.07   0.04    -0.00   0.00  -0.00
  28   1     0.00  -0.00  -0.00     0.02  -0.01  -0.03    -0.00  -0.00   0.00
  29   1    -0.00   0.00  -0.00    -0.02   0.05  -0.06    -0.00  -0.00   0.00
  30   1    -0.01  -0.01  -0.00     0.04   0.00  -0.03    -0.00  -0.00  -0.00
  31   1    -0.00  -0.00  -0.00    -0.05  -0.06  -0.06     0.01   0.00   0.01
  32   1     0.01   0.00   0.01     0.08   0.06   0.02    -0.01  -0.00  -0.01
  33   1    -0.01  -0.00   0.01    -0.23   0.09   0.19     0.02  -0.00  -0.02
  34   1     0.00   0.00  -0.00    -0.08   0.02   0.06     0.01  -0.01  -0.01
  35   1    -0.00  -0.00  -0.00     0.04  -0.07  -0.03    -0.00   0.00   0.00
  36   1     0.00  -0.00  -0.00    -0.03  -0.03   0.01     0.00   0.00  -0.00
  37   1     0.00  -0.00  -0.00    -0.08   0.04   0.04    -0.00   0.00  -0.00
  38   1    -0.00  -0.00   0.00    -0.01  -0.04   0.01    -0.00   0.00  -0.00
  39   1    -0.00  -0.00  -0.00    -0.06   0.01  -0.08     0.01  -0.00   0.01
  40   1     0.00  -0.00   0.00     0.02  -0.04   0.07     0.00   0.00  -0.00
  41   1    -0.00  -0.01  -0.00     0.01  -0.18  -0.12    -0.00   0.02   0.01
  42   1     0.00  -0.00  -0.00     0.01  -0.45  -0.29    -0.00   0.04   0.03
  43   8     0.00  -0.01  -0.00     0.00  -0.00  -0.00     0.00  -0.02  -0.00
  44   6     0.00   0.01   0.00     0.00   0.00   0.00     0.01   0.01   0.00
  45   8    -0.01   0.00   0.00    -0.00   0.00   0.00    -0.00   0.00   0.00
  46   6    -0.00  -0.00  -0.00    -0.00   0.00  -0.00    -0.01  -0.00  -0.00
  47   1     0.00   0.00   0.00     0.00  -0.00   0.00     0.00  -0.00   0.00
  48   1    -0.00   0.00  -0.00    -0.00  -0.00   0.00     0.00   0.00  -0.01
  49   1     0.00  -0.00   0.00    -0.00   0.00  -0.00     0.00   0.00  -0.00
  50   8    -0.00  -0.00  -0.00    -0.00  -0.00  -0.00    -0.01  -0.01   0.00
  51   8    -0.00  -0.01  -0.00     0.00  -0.00   0.00     0.00  -0.00   0.00
  52   6    -0.00   0.00   0.00    -0.00   0.00   0.00    -0.01   0.00   0.01
  53   8    -0.00  -0.00  -0.01    -0.00   0.00  -0.00    -0.00   0.01  -0.01
  54   6     0.00  -0.00   0.00     0.00  -0.00   0.00     0.00  -0.00   0.00
  55   1     0.00  -0.00  -0.00     0.00  -0.00  -0.00     0.00  -0.00  -0.00
  56   1     0.00  -0.00   0.00     0.00  -0.00   0.00     0.00  -0.00   0.00
  57   1     0.00  -0.00  -0.00     0.00  -0.00   0.00     0.00  -0.00   0.00
                     91                     92                     93
                        a                      a                      a 
 Frequencies --  1144.2766              1179.6832              1186.3496
 Red. masses --     7.4373                 1.3370                 7.9815
 Frc consts  --     0.0000                 0.0000                 0.0000
 IR Inten    --     9.8228                 0.1217                 6.7054
 Raman Activ --     0.0000                 0.0000                 0.0000
 Depolar     --     0.0000                 0.0000                 0.0000
 Atom AN      X      Y      Z        X      Y      Z        X      Y      Z
   1  53    -0.00  -0.00   0.00    -0.00   0.00  -0.00    -0.00   0.00  -0.00
   2   6    -0.00  -0.00   0.00    -0.01  -0.00   0.04     0.00   0.00   0.00
   3   6     0.00   0.00  -0.00    -0.05  -0.05  -0.03     0.00   0.01   0.00
   4   6    -0.00  -0.00  -0.00     0.05   0.06   0.05     0.00   0.00  -0.00
   5   6     0.00   0.00  -0.01    -0.03  -0.03   0.01    -0.00  -0.00  -0.00
   6   1     0.00   0.00  -0.00     0.05   0.06   0.17     0.01   0.01   0.02
   7   6     0.00   0.00   0.00     0.00   0.01   0.03    -0.00  -0.00  -0.01
   8   1    -0.01  -0.01  -0.00    -0.11  -0.10   0.02     0.02   0.02  -0.00
   9   6    -0.00  -0.00   0.00     0.04   0.03  -0.09    -0.00  -0.00   0.00
  10   1     0.00   0.00  -0.00    -0.34  -0.34   0.01    -0.01  -0.01  -0.00
  11   1     0.00   0.00   0.01     0.12   0.18   0.36    -0.01  -0.01  -0.02
  12   1    -0.00  -0.00   0.01     0.29   0.20  -0.62    -0.01  -0.00   0.01
  13   1     0.01  -0.19  -0.11    -0.01  -0.00  -0.00    -0.05  -0.04  -0.01
  14   8    -0.01  -0.01   0.01     0.00   0.00  -0.00     0.02   0.01  -0.02
  15   7     0.02  -0.09  -0.08    -0.00  -0.00   0.00    -0.07  -0.01   0.05
  16   6     0.11   0.19   0.26     0.01  -0.00   0.00     0.01  -0.37  -0.22
  17   6    -0.13   0.32   0.06     0.00   0.00   0.00    -0.06   0.35   0.25
  18   6     0.19   0.18   0.09    -0.00   0.00  -0.00    -0.20   0.00   0.00
  19   6    -0.06  -0.08  -0.12    -0.00   0.00  -0.00     0.01   0.14   0.10
  20   6    -0.06  -0.13  -0.06    -0.00   0.00   0.00     0.00   0.17   0.06
  21   6    -0.21   0.13   0.12    -0.00   0.00  -0.00    -0.16  -0.04  -0.01
  22   6     0.06  -0.10  -0.09     0.00  -0.00  -0.00     0.02  -0.12  -0.13
  23   6     0.07  -0.15  -0.02    -0.00  -0.00  -0.00     0.03  -0.14  -0.09
  24   6     0.01  -0.23  -0.15     0.00  -0.00   0.00     0.24   0.01   0.02
  25   1     0.03   0.04   0.04     0.00  -0.00  -0.00    -0.02  -0.10  -0.08
  26   1    -0.11  -0.11   0.05    -0.00  -0.00   0.00     0.12   0.10   0.07
  27   1     0.01   0.07   0.03     0.00  -0.00   0.00    -0.01  -0.08  -0.04
  28   1    -0.09   0.16  -0.06    -0.00   0.00  -0.00     0.09  -0.14   0.03
  29   1     0.09  -0.06   0.10    -0.00   0.00  -0.00    -0.12   0.10  -0.15
  30   1     0.00   0.03   0.02     0.00  -0.00  -0.00    -0.03  -0.08  -0.07
  31   1    -0.05  -0.01  -0.03     0.00  -0.00  -0.00     0.07  -0.03   0.02
  32   1    -0.10  -0.05  -0.07    -0.00   0.00  -0.00     0.14   0.07   0.10
  33   1     0.12   0.00  -0.13     0.00  -0.00  -0.00     0.12  -0.09  -0.06
  34   1    -0.04   0.05   0.03    -0.00   0.00   0.00    -0.03   0.10   0.06
  35   1     0.06  -0.03   0.00     0.00  -0.00   0.00     0.08  -0.02   0.03
  36   1    -0.01   0.03   0.01    -0.00   0.00   0.00    -0.03   0.08   0.04
  37   1     0.11  -0.08  -0.02     0.00  -0.00  -0.00     0.15  -0.10  -0.01
  38   1     0.09   0.02   0.17     0.00   0.00   0.00     0.08   0.03   0.15
  39   1    -0.01   0.06   0.07    -0.00   0.00   0.00    -0.02   0.06   0.07
  40   1    -0.09   0.07  -0.11    -0.00   0.00  -0.00    -0.13   0.09  -0.15
  41   1     0.01  -0.25  -0.16     0.00   0.00   0.00     0.07   0.03   0.02
  42   1    -0.01   0.13   0.08    -0.00   0.00  -0.00     0.04  -0.01  -0.02
  43   8    -0.00   0.00  -0.00     0.00  -0.00   0.00     0.00  -0.00  -0.00
  44   6     0.00   0.00  -0.00     0.00   0.00   0.00    -0.00   0.00   0.00
  45   8     0.00   0.00   0.00    -0.00   0.00   0.00    -0.00   0.00   0.00
  46   6     0.00  -0.00   0.00    -0.00   0.00  -0.00    -0.00  -0.00  -0.00
  47   1    -0.00   0.00  -0.00     0.00   0.00   0.00    -0.00  -0.00  -0.00
  48   1     0.00   0.00  -0.00    -0.00  -0.00   0.00    -0.00   0.00  -0.00
  49   1     0.00  -0.00   0.00     0.00  -0.00   0.00    -0.00  -0.00   0.00
  50   8     0.00   0.02   0.01    -0.00  -0.00   0.00     0.00   0.00   0.00
  51   8    -0.00   0.00  -0.00     0.00  -0.00  -0.00     0.00  -0.00   0.01
  52   6    -0.00  -0.00   0.00    -0.00   0.00   0.00     0.00   0.00  -0.00
  53   8    -0.00   0.00  -0.00    -0.00   0.00  -0.00     0.00   0.00  -0.00
  54   6     0.00  -0.00  -0.00     0.00  -0.00  -0.00     0.00  -0.00   0.00
  55   1     0.00  -0.00  -0.00    -0.00  -0.00   0.00     0.00  -0.00  -0.00
  56   1    -0.00   0.00   0.00    -0.00  -0.00   0.00     0.00  -0.00  -0.00
  57   1     0.00  -0.00   0.00     0.00  -0.00  -0.00    -0.00   0.00  -0.00
                     94                     95                     96
                        a                      a                      a 
 Frequencies --  1191.9198              1201.1016              1213.4097
 Red. masses --     1.9000                 5.9482                 8.7716
 Frc consts  --     0.0000                 0.0000                 0.0000
 IR Inten    --     7.7201                 6.3647                17.2072
 Raman Activ --     0.0000                 0.0000                 0.0000
 Depolar     --     0.0000                 0.0000                 0.0000
 Atom AN      X      Y      Z        X      Y      Z        X      Y      Z
   1  53     0.00   0.00   0.01    -0.00  -0.00   0.00     0.00   0.00  -0.00
   2   6    -0.06  -0.07  -0.05     0.00   0.00   0.00    -0.00   0.00   0.00
   3   6    -0.04  -0.06  -0.10     0.00   0.00   0.00     0.00   0.00   0.00
   4   6    -0.08  -0.08   0.00     0.00   0.00  -0.00     0.00   0.00  -0.00
   5   6     0.09   0.09   0.00    -0.00  -0.00  -0.00    -0.00  -0.00  -0.00
   6   1    -0.14  -0.18  -0.39     0.01   0.00   0.01     0.00   0.01   0.01
   7   6     0.04   0.06   0.11    -0.00  -0.00  -0.00    -0.00  -0.00  -0.00
   8   1    -0.35  -0.32   0.01     0.01   0.01  -0.00     0.01   0.01  -0.00
   9   6     0.02   0.02   0.01    -0.00  -0.00   0.00     0.00   0.00  -0.00
  10   1     0.33   0.33  -0.00    -0.01  -0.01  -0.00    -0.01  -0.01  -0.00
  11   1     0.15   0.22   0.44    -0.00  -0.00  -0.01    -0.00  -0.00  -0.00
  12   1     0.02   0.02  -0.03    -0.00  -0.00   0.00     0.00   0.00  -0.00
  13   1     0.01  -0.01  -0.01     0.01  -0.24  -0.13     0.00   0.03   0.05
  14   8    -0.01  -0.00   0.00    -0.01   0.00   0.00    -0.02  -0.01   0.01
  15   7     0.01   0.01  -0.00     0.03   0.06   0.03     0.14  -0.01   0.01
  16   6    -0.01  -0.02  -0.01     0.28   0.14   0.06    -0.39  -0.01  -0.31
  17   6    -0.02   0.02   0.01    -0.38   0.13   0.02    -0.30   0.22  -0.14
  18   6    -0.01  -0.01  -0.00    -0.14  -0.04  -0.12     0.15  -0.07   0.17
  19   6     0.01   0.01   0.01    -0.10  -0.06   0.00     0.12  -0.00   0.10
  20   6     0.00   0.01  -0.00    -0.08  -0.06  -0.03     0.13   0.01   0.10
  21   6     0.00  -0.01   0.00     0.21  -0.15   0.06     0.10  -0.08   0.14
  22   6     0.00  -0.01  -0.00     0.10  -0.06  -0.02     0.10  -0.07   0.04
  23   6     0.01  -0.01  -0.00     0.12  -0.02  -0.02     0.09  -0.08   0.06
  24   6     0.01   0.01  -0.00    -0.04   0.13   0.04    -0.17   0.10  -0.22
  25   1    -0.00  -0.00  -0.00     0.03   0.01  -0.08     0.12   0.20   0.10
  26   1     0.01   0.01  -0.00    -0.01  -0.02   0.02    -0.10  -0.05  -0.08
  27   1    -0.00  -0.00  -0.00     0.04  -0.02   0.05    -0.01  -0.04  -0.02
  28   1     0.01  -0.01   0.00    -0.04   0.11  -0.10     0.07  -0.14   0.09
  29   1    -0.01   0.00  -0.01     0.05   0.02  -0.01    -0.05  -0.01  -0.01
  30   1    -0.00   0.00   0.00     0.00  -0.01  -0.03     0.10   0.10   0.07
  31   1     0.00   0.01   0.00    -0.04  -0.04  -0.05     0.00   0.04   0.02
  32   1     0.02   0.00   0.01    -0.03  -0.01  -0.04     0.00   0.03  -0.02
  33   1     0.00  -0.00   0.00    -0.04   0.05  -0.01    -0.09   0.08  -0.00
  34   1     0.00  -0.00   0.00     0.01  -0.13  -0.00     0.12  -0.13  -0.13
  35   1     0.00  -0.00  -0.00     0.03  -0.06  -0.03    -0.01  -0.01  -0.02
  36   1     0.00  -0.00  -0.00     0.04  -0.07  -0.03     0.09  -0.08  -0.06
  37   1     0.01  -0.01  -0.00     0.02  -0.02  -0.00    -0.01   0.02  -0.04
  38   1     0.01  -0.00   0.01     0.05  -0.05   0.16     0.05  -0.01   0.11
  39   1    -0.00   0.00   0.00    -0.04   0.03  -0.03    -0.00   0.02   0.04
  40   1    -0.01   0.00  -0.01    -0.04  -0.01   0.03    -0.03   0.01  -0.01
  41   1    -0.00   0.01   0.01    -0.05   0.39   0.26    -0.18  -0.08   0.01
  42   1     0.00  -0.01  -0.01     0.02  -0.31  -0.20     0.08   0.03   0.04
  43   8     0.01  -0.03  -0.01     0.00  -0.00  -0.00    -0.00   0.01   0.00
  44   6    -0.01   0.04  -0.00    -0.00   0.00  -0.00     0.00  -0.01   0.00
  45   8    -0.00   0.00   0.01     0.00  -0.00   0.00     0.00  -0.00  -0.00
  46   6     0.00  -0.01  -0.00     0.00  -0.00   0.00     0.00   0.00   0.00
  47   1     0.00   0.00  -0.00    -0.00   0.00  -0.00    -0.00   0.00  -0.00
  48   1    -0.00   0.00   0.00    -0.00   0.00   0.00     0.00  -0.00   0.00
  49   1     0.00  -0.01   0.01    -0.00  -0.00   0.00    -0.00   0.00  -0.00
  50   8     0.01   0.01   0.00    -0.00   0.02   0.01    -0.01  -0.00  -0.00
  51   8    -0.00  -0.00   0.01    -0.00   0.00  -0.00    -0.00   0.00  -0.00
  52   6     0.00  -0.00  -0.00    -0.00  -0.00  -0.00     0.00   0.00  -0.00
  53   8     0.00   0.01  -0.01    -0.00  -0.00   0.00    -0.00  -0.00   0.00
  54   6     0.00  -0.00   0.00     0.00   0.00   0.00    -0.00   0.00   0.00
  55   1     0.00  -0.00   0.00     0.00  -0.00  -0.00    -0.00   0.00   0.00
  56   1    -0.00  -0.00   0.00    -0.00   0.00  -0.00    -0.00   0.00  -0.00
  57   1     0.00  -0.00  -0.00     0.00  -0.00  -0.00    -0.00   0.00  -0.00
                     97                     98                     99
                        a                      a                      a 
 Frequencies --  1240.4336              1254.4465              1260.4966
 Red. masses --     6.4520                 8.3197                 7.8355
 Frc consts  --     0.0000                 0.0000                 0.0000
 IR Inten    --     5.0898                41.1313                45.1536
 Raman Activ --     0.0000                 0.0000                 0.0000
 Depolar     --     0.0000                 0.0000                 0.0000
 Atom AN      X      Y      Z        X      Y      Z        X      Y      Z
   1  53     0.00   0.00  -0.00     0.00   0.00  -0.00     0.00  -0.00   0.00
   2   6     0.00   0.00  -0.01    -0.00  -0.00   0.00    -0.00   0.00   0.00
   3   6    -0.00  -0.01  -0.00     0.00   0.00   0.01    -0.00   0.00  -0.00
   4   6    -0.00   0.00   0.00    -0.00  -0.00  -0.00     0.00   0.00   0.00
   5   6    -0.00  -0.00   0.00     0.00  -0.00  -0.00     0.00   0.00  -0.00
   6   1    -0.00   0.00  -0.00     0.00  -0.00   0.00     0.00  -0.00   0.00
   7   6     0.00   0.00   0.00    -0.00  -0.00  -0.00    -0.00  -0.00  -0.00
   8   1    -0.01  -0.01   0.00     0.01   0.01  -0.00     0.00   0.00   0.00
   9   6     0.00   0.00   0.00     0.00   0.00  -0.00    -0.00  -0.00   0.00
  10   1     0.01   0.01   0.00    -0.01  -0.01  -0.00    -0.00  -0.00  -0.00
  11   1    -0.00  -0.00  -0.00     0.00   0.00   0.00    -0.00  -0.00  -0.00
  12   1     0.00   0.00  -0.00    -0.00  -0.00   0.00    -0.00  -0.00   0.00
  13   1    -0.01   0.23   0.12     0.06   0.14  -0.04     0.01  -0.18  -0.11
  14   8     0.01   0.03   0.01     0.01  -0.01   0.03    -0.00  -0.04  -0.02
  15   7    -0.01   0.02   0.02     0.12  -0.01  -0.13     0.02   0.25   0.15
  16   6     0.29   0.03  -0.30    -0.35  -0.10   0.34     0.03  -0.40   0.16
  17   6    -0.29  -0.30   0.17    -0.32  -0.21   0.33    -0.16  -0.12  -0.41
  18   6    -0.03   0.03   0.13     0.05   0.01  -0.13    -0.01   0.12  -0.03
  19   6    -0.08  -0.02   0.09     0.10   0.04  -0.10    -0.01   0.11  -0.04
  20   6    -0.10  -0.03   0.09     0.11   0.04  -0.11     0.00   0.11  -0.05
  21   6     0.03   0.14  -0.03     0.03   0.09  -0.07     0.01   0.06   0.10
  22   6     0.10   0.08  -0.06     0.11   0.07  -0.10     0.03   0.03   0.11
  23   6     0.08   0.09  -0.06     0.09   0.06  -0.10     0.05   0.04   0.11
  24   6     0.00  -0.00  -0.00     0.04   0.01   0.03     0.03  -0.14  -0.07
  25   1    -0.02  -0.04   0.02    -0.00   0.01  -0.02     0.18   0.13  -0.09
  26   1    -0.21  -0.21   0.09     0.18   0.18  -0.07    -0.05  -0.06   0.06
  27   1     0.08  -0.10   0.05    -0.10   0.11  -0.08    -0.05   0.01  -0.06
  28   1     0.03   0.01  -0.09    -0.02  -0.03   0.10     0.01  -0.03   0.01
  29   1     0.02   0.06  -0.06    -0.03  -0.07   0.06    -0.07   0.03  -0.05
  30   1     0.07   0.01  -0.04    -0.09  -0.01   0.06    -0.07  -0.09  -0.05
  31   1    -0.08  -0.08  -0.10     0.09   0.10   0.11     0.10  -0.01   0.06
  32   1     0.10   0.08   0.01    -0.08  -0.08   0.01     0.01  -0.02   0.06
  33   1     0.23   0.01  -0.24     0.14  -0.00  -0.14     0.15   0.03  -0.18
  34   1     0.04   0.01  -0.05     0.07   0.02  -0.07    -0.24  -0.02   0.21
  35   1     0.07  -0.12  -0.05     0.10  -0.14  -0.04    -0.08   0.00  -0.04
  36   1    -0.05  -0.06   0.03    -0.07  -0.05   0.04     0.06  -0.10  -0.06
  37   1    -0.11   0.05   0.07    -0.07   0.02   0.08    -0.04   0.05  -0.03
  38   1    -0.01  -0.08   0.05     0.00  -0.07   0.08    -0.02  -0.04  -0.01
  39   1    -0.09   0.01  -0.12    -0.11   0.04  -0.11     0.03  -0.04  -0.01
  40   1    -0.03  -0.03   0.07    -0.06  -0.02   0.05     0.07  -0.05   0.09
  41   1     0.00  -0.09  -0.06     0.04   0.03  -0.00     0.02   0.03   0.02
  42   1    -0.01   0.17   0.11     0.01  -0.04  -0.03    -0.01   0.15   0.09
  43   8    -0.00   0.00   0.00    -0.01   0.02   0.00     0.01  -0.02  -0.01
  44   6     0.00  -0.01   0.00     0.01  -0.02   0.01    -0.01   0.03  -0.00
  45   8     0.00   0.00   0.00     0.00  -0.00  -0.01    -0.00  -0.00   0.01
  46   6    -0.00   0.00  -0.00    -0.00   0.00  -0.00     0.00  -0.01   0.00
  47   1     0.00  -0.00   0.00    -0.00   0.00   0.00     0.00   0.00   0.00
  48   1    -0.00  -0.00   0.00     0.00  -0.00  -0.00    -0.00   0.00   0.00
  49   1    -0.00   0.00  -0.00     0.00   0.00  -0.01    -0.00  -0.00   0.01
  50   8    -0.00  -0.02  -0.01    -0.00  -0.01   0.01    -0.00   0.02   0.01
  51   8     0.00  -0.00  -0.00    -0.00   0.00  -0.00    -0.00   0.00  -0.00
  52   6     0.00   0.00   0.00    -0.00  -0.00   0.00    -0.00  -0.00   0.00
  53   8    -0.00   0.00   0.00    -0.00  -0.00   0.00    -0.00  -0.00   0.00
  54   6    -0.00   0.00   0.00    -0.00   0.00  -0.00     0.00   0.00   0.00
  55   1    -0.00   0.00   0.00    -0.00  -0.00   0.00     0.00  -0.00  -0.00
  56   1     0.00  -0.00   0.00    -0.00   0.00   0.00    -0.00   0.00   0.00
  57   1    -0.00   0.00  -0.00     0.00   0.00   0.00     0.00  -0.00   0.00
                    100                    101                    102
                        a                      a                      a 
 Frequencies --  1269.2035              1283.3671              1285.9087
 Red. masses --     3.4752                 5.3984                 4.7680
 Frc consts  --     0.0000                 0.0000                 0.0000
 IR Inten    --     3.6222                 7.1819                29.7640
 Raman Activ --     0.0000                 0.0000                 0.0000
 Depolar     --     0.0000                 0.0000                 0.0000
 Atom AN      X      Y      Z        X      Y      Z        X      Y      Z
   1  53    -0.00  -0.00   0.00    -0.00  -0.00   0.00    -0.00  -0.01   0.00
   2   6    -0.11  -0.08   0.22    -0.00  -0.00   0.01     0.00   0.00  -0.00
   3   6     0.10   0.12   0.16     0.00   0.00   0.00    -0.00  -0.00  -0.01
   4   6    -0.15  -0.15  -0.06    -0.00  -0.00  -0.00     0.01   0.01  -0.00
   5   6     0.06   0.05  -0.07     0.00   0.00  -0.00     0.00   0.00  -0.00
   6   1    -0.13  -0.17  -0.41    -0.00  -0.01  -0.01     0.01   0.01   0.02
   7   6     0.03   0.01  -0.10    -0.00  -0.00  -0.00    -0.00  -0.00   0.00
   8   1     0.34   0.31  -0.03     0.01   0.01  -0.00    -0.01  -0.01   0.00
   9   6     0.07   0.05  -0.15     0.00  -0.00  -0.00    -0.01  -0.01   0.01
  10   1    -0.26  -0.27  -0.02    -0.01  -0.01  -0.00     0.00   0.00  -0.00
  11   1     0.13   0.18   0.32     0.00   0.00   0.01    -0.01  -0.01  -0.02
  12   1    -0.09  -0.06   0.20    -0.00  -0.00   0.01     0.00   0.00  -0.01
  13   1     0.01  -0.03  -0.00     0.01  -0.21  -0.17     0.02  -0.64  -0.30
  14   8    -0.00   0.00  -0.00     0.01  -0.01   0.00    -0.01  -0.01  -0.01
  15   7     0.00   0.01   0.00    -0.05   0.12   0.01     0.04   0.19   0.10
  16   6     0.00   0.01  -0.02     0.10  -0.29   0.10    -0.17   0.17  -0.26
  17   6    -0.00  -0.01  -0.01     0.14  -0.10   0.33     0.01  -0.20   0.10
  18   6    -0.01  -0.01   0.01     0.10   0.08   0.00    -0.05  -0.13   0.07
  19   6    -0.00  -0.00   0.01    -0.04   0.08  -0.02     0.04  -0.05   0.06
  20   6     0.00  -0.01   0.00    -0.03   0.08  -0.02     0.07  -0.04   0.08
  21   6    -0.00   0.00  -0.00     0.10   0.01  -0.10     0.00   0.05  -0.11
  22   6    -0.00   0.01   0.00    -0.05   0.03  -0.08    -0.03   0.08  -0.03
  23   6     0.00   0.00   0.00    -0.04   0.02  -0.09     0.01   0.06  -0.02
  24   6     0.01  -0.00   0.01    -0.21   0.05  -0.07     0.06   0.07   0.08
  25   1    -0.01  -0.01   0.00     0.26   0.26  -0.04    -0.09  -0.07   0.06
  26   1     0.00   0.00   0.00    -0.24  -0.24   0.04     0.10   0.12  -0.05
  27   1     0.01  -0.00   0.00    -0.02  -0.01  -0.03     0.04  -0.03   0.03
  28   1     0.00  -0.00  -0.00     0.01  -0.01  -0.02     0.02  -0.04   0.03
  29   1     0.00   0.00   0.00    -0.04   0.03  -0.04     0.02  -0.02   0.03
  30   1    -0.00   0.00   0.01    -0.04  -0.07  -0.05     0.09   0.06   0.02
  31   1    -0.01   0.00  -0.01     0.06  -0.04   0.03    -0.04   0.01  -0.02
  32   1     0.01   0.00   0.00     0.02  -0.00   0.04    -0.07   0.02  -0.09
  33   1     0.01  -0.00  -0.01    -0.23   0.04   0.22     0.08  -0.03  -0.04
  34   1    -0.01   0.00   0.01     0.25  -0.03  -0.23    -0.07   0.05   0.06
  35   1    -0.00  -0.00  -0.00     0.07  -0.01   0.03     0.02  -0.04  -0.01
  36   1    -0.00  -0.00   0.00    -0.08   0.05   0.05    -0.05  -0.03   0.02
  37   1     0.00  -0.00   0.00     0.05  -0.05   0.06     0.05  -0.04   0.06
  38   1    -0.00  -0.00  -0.00    -0.01   0.01  -0.03    -0.02  -0.03  -0.03
  39   1    -0.00  -0.00  -0.00    -0.04   0.02  -0.03    -0.04   0.00  -0.06
  40   1     0.00  -0.00   0.00    -0.03   0.02  -0.03    -0.01  -0.01   0.02
  41   1     0.00  -0.01  -0.01    -0.09  -0.04  -0.02     0.04  -0.16  -0.11
  42   1    -0.00   0.01   0.00    -0.01   0.02   0.02     0.00   0.06   0.04
  43   8    -0.01   0.03   0.00     0.02  -0.05  -0.02     0.02  -0.06  -0.02
  44   6     0.00  -0.04   0.01    -0.02   0.07  -0.02    -0.03   0.09  -0.02
  45   8     0.00  -0.00  -0.01    -0.00   0.00   0.02    -0.00  -0.00   0.02
  46   6     0.00   0.01  -0.00     0.00  -0.01   0.00     0.01  -0.02   0.00
  47   1    -0.00  -0.00  -0.00     0.00  -0.00   0.00    -0.00   0.00  -0.00
  48   1     0.00  -0.00  -0.00    -0.00   0.00   0.00    -0.00   0.00   0.01
  49   1    -0.00   0.00  -0.01    -0.00  -0.01   0.02    -0.00  -0.01   0.02
  50   8     0.01   0.01  -0.01     0.01   0.02   0.02    -0.00   0.06   0.02
  51   8    -0.00  -0.00   0.00    -0.00   0.00   0.00     0.00   0.00  -0.00
  52   6     0.01   0.00  -0.01    -0.00  -0.00  -0.00    -0.01   0.00   0.00
  53   8     0.00  -0.01   0.00     0.00   0.00  -0.00     0.00  -0.00   0.00
  54   6    -0.00   0.00   0.00    -0.00   0.00  -0.00     0.00   0.00  -0.00
  55   1    -0.00   0.00   0.00     0.00  -0.00  -0.00     0.00  -0.00  -0.00
  56   1    -0.00   0.00  -0.00     0.00  -0.00   0.00    -0.00  -0.00   0.00
  57   1    -0.00   0.00  -0.00     0.00  -0.00   0.00     0.00  -0.00   0.00
                    103                    104                    105
                        a                      a                      a 
 Frequencies --  1309.7378              1332.4241              1337.8126
 Red. masses --    12.5216                11.8838                 4.8253
 Frc consts  --     0.0000                 0.0000                 0.0000
 IR Inten    --   462.5311                 1.0854                 0.3621
 Raman Activ --     0.0000                 0.0000                 0.0000
 Depolar     --     0.0000                 0.0000                 0.0000
 Atom AN      X      Y      Z        X      Y      Z        X      Y      Z
   1  53    -0.00  -0.00   0.01    -0.00  -0.00   0.00    -0.00   0.00  -0.00
   2   6    -0.01  -0.01   0.01     0.14   0.10  -0.31    -0.00  -0.00   0.00
   3   6     0.00   0.01   0.03     0.13   0.18   0.31    -0.00  -0.00  -0.00
   4   6     0.00   0.00  -0.01    -0.28  -0.27  -0.04     0.00   0.00   0.00
   5   6     0.00   0.00  -0.00    -0.32  -0.33   0.01     0.00   0.00  -0.00
   6   1    -0.00  -0.00  -0.00     0.01   0.02   0.02    -0.00   0.00   0.00
   7   6    -0.00  -0.01  -0.00     0.14   0.20   0.38    -0.00  -0.00  -0.00
   8   1     0.05   0.04  -0.00    -0.01  -0.02  -0.01     0.00   0.00   0.00
   9   6     0.00   0.00  -0.02     0.16   0.11  -0.33    -0.00  -0.00   0.00
  10   1    -0.03  -0.03  -0.00     0.04   0.05   0.00    -0.00  -0.00   0.00
  11   1    -0.00  -0.00  -0.00    -0.01  -0.02  -0.05     0.00  -0.00   0.00
  12   1    -0.01  -0.01   0.01     0.02   0.02  -0.05     0.00  -0.00   0.00
  13   1    -0.03   0.12   0.05     0.01  -0.01  -0.01     0.00   0.01   0.00
  14   8     0.00  -0.00   0.01    -0.00  -0.00   0.00     0.00   0.01   0.01
  15   7     0.01  -0.04  -0.02    -0.00   0.00   0.00     0.00  -0.04  -0.03
  16   6    -0.01   0.02   0.02     0.00   0.00  -0.00     0.04   0.10  -0.04
  17   6    -0.02   0.03  -0.02    -0.00  -0.00   0.00    -0.06   0.01   0.12
  18   6     0.00   0.01  -0.01    -0.00  -0.00   0.00    -0.16  -0.06   0.11
  19   6     0.00  -0.00  -0.01    -0.00  -0.00   0.00    -0.00  -0.04   0.03
  20   6    -0.00  -0.00  -0.01    -0.00  -0.00  -0.00    -0.02  -0.03   0.00
  21   6    -0.02  -0.00   0.03     0.00  -0.00  -0.01     0.19   0.08  -0.12
  22   6     0.02  -0.01   0.00    -0.00   0.00  -0.00     0.03  -0.01  -0.03
  23   6     0.00  -0.00   0.00     0.00   0.00  -0.00     0.00   0.01  -0.05
  24   6     0.01  -0.01  -0.01    -0.00   0.00   0.00     0.01  -0.39  -0.24
  25   1    -0.03  -0.03   0.00     0.00   0.00  -0.00     0.07   0.08  -0.00
  26   1     0.01   0.01  -0.00     0.00   0.00  -0.00     0.22   0.21   0.03
  27   1    -0.00  -0.00  -0.00     0.00  -0.00   0.00    -0.01   0.01   0.01
  28   1    -0.00   0.00   0.00     0.00  -0.00  -0.00    -0.00   0.02  -0.03
  29   1     0.00  -0.01   0.01     0.00   0.00  -0.00     0.01   0.01  -0.01
  30   1     0.00   0.01   0.00     0.00   0.00  -0.00     0.02   0.02   0.00
  31   1     0.00  -0.00   0.00     0.00   0.00   0.00    -0.01   0.01   0.00
  32   1    -0.00  -0.01   0.00     0.00   0.00  -0.00     0.01   0.01  -0.01
  33   1     0.02   0.00  -0.02    -0.00   0.00   0.00    -0.26   0.10   0.20
  34   1     0.00  -0.01  -0.00    -0.00   0.00   0.00    -0.09   0.03   0.09
  35   1    -0.00   0.01   0.00    -0.00  -0.00  -0.00     0.01   0.01   0.01
  36   1     0.01   0.01  -0.01    -0.00  -0.00   0.00    -0.02   0.01   0.02
  37   1    -0.03   0.01  -0.01     0.00  -0.00   0.00    -0.01  -0.01   0.03
  38   1     0.00  -0.01   0.02     0.00  -0.00   0.00     0.00  -0.02   0.04
  39   1     0.01  -0.00   0.01    -0.00   0.00  -0.00     0.01   0.01   0.01
  40   1     0.00  -0.00   0.00    -0.00  -0.00   0.00    -0.01  -0.01   0.02
  41   1     0.00   0.03   0.02     0.00  -0.00  -0.00    -0.01   0.28   0.18
  42   1     0.00  -0.01  -0.01    -0.00   0.00   0.00    -0.02   0.45   0.29
  43   8     0.16  -0.48  -0.13     0.00   0.00   0.00     0.00  -0.00  -0.00
  44   6    -0.18   0.68  -0.24     0.00   0.00   0.00    -0.00   0.00  -0.00
  45   8    -0.03   0.02   0.25     0.00  -0.00   0.00    -0.00  -0.00   0.00
  46   6     0.04  -0.11   0.01    -0.00  -0.00   0.00     0.00  -0.00   0.00
  47   1     0.01  -0.03   0.01    -0.00  -0.00  -0.00    -0.00   0.00  -0.00
  48   1    -0.02  -0.01   0.05     0.00   0.00  -0.00    -0.00   0.00  -0.00
  49   1    -0.02  -0.09   0.19    -0.00  -0.00   0.00    -0.00   0.00  -0.00
  50   8     0.01  -0.01  -0.01    -0.00  -0.00   0.00     0.00  -0.00   0.00
  51   8     0.02   0.01  -0.03    -0.00  -0.00   0.00     0.00  -0.00  -0.00
  52   6    -0.04   0.02   0.01     0.00   0.00  -0.00    -0.00   0.00   0.00
  53   8     0.00  -0.02   0.02    -0.00   0.00   0.00     0.00  -0.00  -0.00
  54   6     0.01  -0.00  -0.00    -0.00  -0.00   0.00    -0.00  -0.00  -0.00
  55   1     0.01   0.00  -0.00     0.00  -0.00  -0.00     0.00  -0.00  -0.00
  56   1     0.00  -0.00   0.00     0.00   0.00  -0.00     0.00  -0.00   0.00
  57   1     0.01  -0.00   0.01    -0.00  -0.00  -0.00     0.00  -0.00   0.00
                    106                    107                    108
                        a                      a                      a 
 Frequencies --  1350.5104              1354.2364              1355.1982
 Red. masses --     5.2355                 3.3397                 5.0805
 Frc consts  --     0.0000                 0.0000                 0.0000
 IR Inten    --     8.2048                 9.7347                 2.8913
 Raman Activ --     0.0000                 0.0000                 0.0000
 Depolar     --     0.0000                 0.0000                 0.0000
 Atom AN      X      Y      Z        X      Y      Z        X      Y      Z
   1  53    -0.00   0.00  -0.00    -0.00  -0.00   0.00     0.00   0.00  -0.00
   2   6    -0.00  -0.00   0.00    -0.00  -0.00   0.00    -0.00  -0.00   0.00
   3   6    -0.00  -0.00  -0.00    -0.00  -0.00  -0.00    -0.00  -0.00   0.00
   4   6     0.00   0.00   0.00    -0.00  -0.00   0.00     0.00   0.00   0.00
   5   6     0.00   0.00   0.00     0.00   0.00   0.00     0.00   0.00   0.00
   6   1    -0.00   0.00   0.00    -0.00  -0.00  -0.00    -0.00   0.00  -0.00
   7   6    -0.00  -0.00  -0.00     0.00   0.00   0.00    -0.00  -0.00  -0.00
   8   1     0.00   0.00   0.00    -0.00   0.00  -0.00     0.00   0.00   0.00
   9   6    -0.00  -0.00   0.00    -0.00   0.00   0.00     0.00   0.00  -0.00
  10   1    -0.00  -0.00   0.00     0.00   0.00   0.00    -0.00  -0.00   0.00
  11   1     0.00   0.00   0.00     0.00   0.00   0.00     0.00   0.00   0.00
  12   1    -0.00  -0.00   0.00     0.00   0.00  -0.00    -0.00  -0.00   0.00
  13   1    -0.01   0.11   0.06    -0.00  -0.01   0.01     0.05   0.12  -0.07
  14   8     0.01   0.01   0.00     0.00   0.00  -0.00    -0.01  -0.01   0.02
  15   7     0.02  -0.05  -0.04     0.00   0.00   0.00    -0.04  -0.04  -0.01
  16   6     0.03  -0.01   0.04    -0.01  -0.01  -0.00     0.18   0.11   0.07
  17   6    -0.19   0.11   0.07    -0.00   0.00   0.00     0.05  -0.01  -0.05
  18   6     0.02  -0.07  -0.02     0.02   0.02  -0.01    -0.30  -0.36   0.09
  19   6    -0.01   0.01  -0.02     0.00   0.00  -0.00    -0.04  -0.05   0.01
  20   6    -0.01   0.00  -0.02     0.00   0.00   0.00    -0.07  -0.04  -0.04
  21   6     0.29  -0.07  -0.36     0.01   0.00  -0.01    -0.12  -0.02   0.07
  22   6     0.06  -0.06  -0.01     0.00   0.00  -0.00    -0.01   0.00   0.01
  23   6     0.04  -0.02  -0.03     0.00   0.00  -0.00    -0.00  -0.01   0.03
  24   6    -0.05   0.18   0.22    -0.00  -0.01   0.00     0.05   0.20  -0.03
  25   1     0.07   0.10   0.01    -0.02  -0.02   0.00     0.42   0.43  -0.07
  26   1    -0.06  -0.07  -0.01    -0.01  -0.01   0.01     0.21   0.23  -0.08
  27   1     0.02   0.00   0.01     0.00  -0.00  -0.00    -0.00   0.04   0.03
  28   1    -0.01   0.00   0.01     0.00  -0.00   0.00    -0.02   0.06  -0.05
  29   1    -0.01   0.00  -0.00    -0.00  -0.00   0.00     0.03   0.03  -0.04
  30   1    -0.00   0.00   0.00    -0.00  -0.00   0.00     0.02   0.01  -0.02
  31   1     0.02  -0.00   0.02    -0.00   0.00  -0.00     0.03   0.00   0.04
  32   1     0.02  -0.00   0.02     0.00  -0.00   0.00     0.02   0.01  -0.00
  33   1    -0.19  -0.01   0.20    -0.01   0.00   0.01     0.12  -0.02  -0.13
  34   1    -0.41   0.09   0.39    -0.01  -0.00   0.00     0.08   0.02  -0.07
  35   1    -0.03   0.04  -0.01     0.00  -0.00  -0.00    -0.01   0.00  -0.00
  36   1    -0.01  -0.01   0.02    -0.00  -0.00  -0.00     0.00   0.01  -0.00
  37   1    -0.02   0.01   0.00     0.00  -0.00   0.00    -0.01   0.01  -0.01
  38   1     0.03  -0.00   0.06     0.00  -0.00   0.00     0.00   0.02  -0.03
  39   1    -0.02   0.05   0.03     0.00   0.00   0.00    -0.02  -0.00  -0.01
  40   1    -0.03  -0.02   0.03    -0.00  -0.00   0.00     0.01   0.01  -0.02
  41   1     0.03  -0.31  -0.21     0.00   0.01   0.01    -0.03  -0.20  -0.11
  42   1    -0.07  -0.02  -0.03    -0.01  -0.00  -0.00     0.09   0.00   0.02
  43   8     0.00  -0.01  -0.00    -0.00   0.01   0.00     0.00   0.00  -0.00
  44   6    -0.00   0.01  -0.01     0.00  -0.01   0.00     0.00  -0.01  -0.00
  45   8    -0.00   0.00   0.01     0.00  -0.00  -0.00    -0.00   0.00   0.00
  46   6     0.00  -0.00   0.00     0.00  -0.01   0.01    -0.01   0.03  -0.04
  47   1    -0.00   0.00  -0.00    -0.01   0.01  -0.01     0.03  -0.03   0.04
  48   1     0.00   0.00  -0.00     0.00   0.01  -0.01    -0.01  -0.04   0.04
  49   1    -0.00  -0.00  -0.00    -0.00   0.00  -0.01     0.01  -0.02   0.05
  50   8    -0.00  -0.01  -0.00    -0.00   0.00  -0.00     0.00  -0.01   0.01
  51   8     0.00  -0.00  -0.00     0.05   0.02  -0.07     0.00   0.00  -0.00
  52   6    -0.00   0.00   0.00    -0.07   0.03   0.02    -0.00   0.00   0.00
  53   8     0.00  -0.00   0.00     0.02  -0.05   0.05     0.00  -0.00   0.00
  54   6     0.00  -0.00  -0.00    -0.35   0.24   0.05    -0.02   0.02   0.00
  55   1    -0.00   0.00   0.00     0.36  -0.28  -0.23     0.02  -0.02  -0.01
  56   1    -0.00   0.00   0.00     0.50  -0.12   0.06     0.03  -0.01   0.00
  57   1    -0.00   0.00   0.00     0.31  -0.41  -0.00     0.02  -0.03  -0.00
                    109                    110                    111
                        a                      a                      a 
 Frequencies --  1357.7244              1375.5219              1396.9029
 Red. masses --     3.5246                 2.0354                 3.1743
 Frc consts  --     0.0000                 0.0000                 0.0000
 IR Inten    --    50.2947                55.8998                 0.5207
 Raman Activ --     0.0000                 0.0000                 0.0000
 Depolar     --     0.0000                 0.0000                 0.0000
 Atom AN      X      Y      Z        X      Y      Z        X      Y      Z
   1  53     0.00  -0.00   0.00    -0.00   0.01  -0.01    -0.00   0.00   0.00
   2   6    -0.00  -0.00   0.00    -0.00   0.00  -0.01    -0.00  -0.00  -0.00
   3   6    -0.00  -0.00  -0.00    -0.00  -0.00   0.01    -0.00  -0.00   0.00
   4   6     0.00   0.00   0.00     0.00   0.00   0.01     0.00   0.00   0.00
   5   6     0.00   0.00   0.00     0.01   0.01   0.00     0.00   0.00  -0.00
   6   1    -0.00  -0.00  -0.00    -0.00   0.00   0.01    -0.00   0.00   0.00
   7   6    -0.00   0.00   0.00    -0.01  -0.01  -0.01    -0.00  -0.00   0.00
   8   1     0.00   0.00   0.00    -0.00  -0.00   0.00    -0.00  -0.00   0.00
   9   6     0.00  -0.00  -0.00     0.00   0.00  -0.01    -0.00  -0.00  -0.00
  10   1    -0.00  -0.00   0.00    -0.01  -0.01   0.00    -0.00  -0.00  -0.00
  11   1    -0.00   0.00  -0.00     0.00   0.00   0.01    -0.00  -0.00  -0.00
  12   1    -0.00   0.00  -0.00    -0.01  -0.00   0.01    -0.00  -0.00   0.00
  13   1     0.01   0.02  -0.02     0.31   0.40  -0.79     0.01  -0.02  -0.03
  14   8    -0.00  -0.00   0.00    -0.01  -0.08   0.12    -0.00  -0.00   0.00
  15   7    -0.01  -0.01   0.00    -0.10   0.01   0.03    -0.00   0.01   0.00
  16   6     0.02   0.01   0.01    -0.02   0.01  -0.08     0.04  -0.00   0.02
  17   6     0.01  -0.00  -0.01     0.01   0.04  -0.04    -0.03   0.02  -0.02
  18   6    -0.03  -0.04   0.01     0.04   0.04   0.02    -0.01   0.00  -0.01
  19   6    -0.00  -0.00   0.00     0.01  -0.01   0.03    -0.14   0.17  -0.17
  20   6    -0.01  -0.00  -0.00     0.04   0.01   0.06    -0.10  -0.07  -0.07
  21   6    -0.02  -0.00   0.01     0.02  -0.02  -0.00     0.02  -0.01   0.01
  22   6     0.00  -0.00   0.00     0.02  -0.03   0.01     0.09  -0.08  -0.03
  23   6    -0.00  -0.00   0.00     0.00  -0.02   0.02     0.14  -0.08   0.23
  24   6     0.01   0.02  -0.01    -0.00  -0.02   0.01    -0.00  -0.02  -0.01
  25   1     0.05   0.05  -0.01    -0.06  -0.08   0.00    -0.01   0.01   0.01
  26   1     0.03   0.03  -0.01    -0.04  -0.02  -0.02     0.01  -0.00   0.02
  27   1     0.00   0.00   0.00    -0.01  -0.01  -0.01     0.27  -0.20   0.12
  28   1    -0.00   0.01  -0.01     0.01   0.00  -0.01     0.04  -0.25   0.16
  29   1     0.00   0.00  -0.00    -0.01   0.01  -0.02     0.11  -0.14   0.28
  30   1     0.00   0.00  -0.00    -0.02  -0.05  -0.02     0.08   0.13   0.04
  31   1     0.00   0.00   0.00    -0.06   0.01  -0.05     0.08   0.05   0.13
  32   1     0.00   0.00  -0.00    -0.04   0.03  -0.06     0.13   0.04   0.05
  33   1     0.02  -0.00  -0.02    -0.03   0.02   0.00    -0.01   0.02  -0.01
  34   1     0.01   0.00  -0.01    -0.02   0.02   0.03     0.00   0.01   0.01
  35   1    -0.00   0.00   0.00    -0.05   0.02  -0.03    -0.08   0.12  -0.00
  36   1    -0.00   0.00   0.00    -0.02   0.01   0.02    -0.07   0.09   0.09
  37   1    -0.00   0.00  -0.00    -0.00   0.01  -0.03    -0.13   0.05   0.02
  38   1    -0.00   0.00  -0.00     0.00   0.01  -0.01    -0.03   0.06  -0.30
  39   1     0.00   0.00   0.00    -0.01   0.00  -0.00    -0.26   0.01  -0.24
  40   1     0.00  -0.00   0.00    -0.00   0.01  -0.02    -0.13   0.20  -0.23
  41   1    -0.00  -0.02  -0.01     0.00   0.02   0.01     0.00   0.05   0.03
  42   1     0.01  -0.00   0.00    -0.01   0.00  -0.00     0.00   0.01   0.01
  43   8     0.01  -0.03  -0.01     0.01   0.00  -0.01    -0.00   0.00   0.00
  44   6    -0.02   0.09  -0.03     0.00  -0.00   0.00     0.00  -0.00  -0.00
  45   8     0.00  -0.01  -0.00     0.00   0.00   0.00    -0.00   0.00  -0.00
  46   6     0.07  -0.27   0.37    -0.00   0.00  -0.00     0.00  -0.00  -0.00
  47   1    -0.25   0.30  -0.34     0.00  -0.00   0.00     0.00  -0.00   0.00
  48   1     0.12   0.37  -0.34    -0.00  -0.00   0.00    -0.00   0.00   0.00
  49   1    -0.08   0.13  -0.46     0.00  -0.00   0.00    -0.00   0.00  -0.00
  50   8     0.00  -0.00   0.00     0.03  -0.06   0.11     0.00   0.00   0.00
  51   8     0.00   0.00  -0.00    -0.01  -0.01   0.02     0.00   0.00  -0.00
  52   6    -0.01   0.00   0.00     0.03  -0.02   0.00    -0.01   0.00   0.00
  53   8     0.00  -0.00   0.00    -0.01   0.02  -0.02     0.00  -0.00   0.00
  54   6     0.01  -0.01  -0.00    -0.01   0.01   0.00     0.00  -0.00  -0.00
  55   1    -0.01   0.01   0.00    -0.00  -0.01  -0.00     0.00   0.00  -0.00
  56   1    -0.01   0.00  -0.00     0.01  -0.00   0.00    -0.00  -0.00   0.00
  57   1    -0.01   0.01   0.00    -0.00  -0.00  -0.01     0.00   0.00   0.00
                    112                    113                    114
                        a                      a                      a 
 Frequencies --  1403.5905              1408.7751              1418.8750
 Red. masses --     3.0834                10.9484                 2.9002
 Frc consts  --     0.0000                 0.0000                 0.0000
 IR Inten    --    21.2346               286.6070                11.4666
 Raman Activ --     0.0000                 0.0000                 0.0000
 Depolar     --     0.0000                 0.0000                 0.0000
 Atom AN      X      Y      Z        X      Y      Z        X      Y      Z
   1  53    -0.00   0.00  -0.00     0.01  -0.01   0.00     0.00  -0.00  -0.00
   2   6     0.00   0.00  -0.00    -0.00  -0.00   0.00     0.00   0.00   0.00
   3   6    -0.00  -0.00   0.00     0.00   0.00  -0.01    -0.00  -0.00  -0.00
   4   6     0.00   0.00   0.00    -0.00  -0.00   0.00    -0.00  -0.00   0.00
   5   6     0.00   0.00   0.00    -0.00  -0.00  -0.00    -0.00  -0.00   0.00
   6   1    -0.00   0.00   0.00    -0.00  -0.00  -0.01     0.00  -0.00   0.00
   7   6    -0.00  -0.00  -0.00     0.00   0.00   0.00     0.00  -0.00  -0.00
   8   1    -0.00  -0.00   0.00    -0.00   0.00  -0.00     0.00   0.00   0.00
   9   6     0.00  -0.00  -0.00    -0.00  -0.00   0.00     0.00   0.00   0.00
  10   1    -0.00  -0.00   0.00     0.00   0.00  -0.00     0.00   0.00   0.00
  11   1    -0.00  -0.00   0.00     0.00   0.00   0.00     0.00   0.00   0.00
  12   1    -0.00  -0.00   0.00     0.00   0.00  -0.00     0.00   0.00   0.00
  13   1     0.03   0.05  -0.08     0.03   0.02  -0.05    -0.00   0.08   0.04
  14   8     0.00  -0.01   0.01     0.00  -0.01   0.01     0.00   0.01  -0.00
  15   7    -0.02   0.00  -0.00    -0.01   0.00   0.00    -0.01  -0.03  -0.01
  16   6     0.03   0.00   0.02     0.00  -0.00  -0.01     0.01   0.01   0.00
  17   6     0.04  -0.01   0.01     0.01   0.01   0.00    -0.01  -0.00   0.01
  18   6    -0.01  -0.00  -0.01     0.00   0.00   0.00    -0.01  -0.01  -0.00
  19   6    -0.11   0.15  -0.14    -0.00   0.00   0.00    -0.01   0.02  -0.02
  20   6    -0.13  -0.10  -0.09    -0.01  -0.01  -0.00     0.08   0.06   0.06
  21   6    -0.01   0.01   0.00    -0.00  -0.00   0.00     0.04  -0.01  -0.03
  22   6    -0.13   0.11   0.05    -0.00   0.01   0.00    -0.24   0.21   0.12
  23   6    -0.12   0.08  -0.20    -0.01   0.00  -0.01     0.08  -0.05   0.15
  24   6     0.03   0.00   0.00     0.00  -0.00  -0.00    -0.02  -0.01   0.00
  25   1     0.00   0.00  -0.01    -0.00  -0.00  -0.00     0.01   0.03   0.01
  26   1    -0.00   0.00  -0.00    -0.00  -0.00  -0.00     0.02   0.00   0.02
  27   1     0.23  -0.18   0.10     0.00  -0.00   0.00     0.03  -0.02   0.01
  28   1     0.03  -0.22   0.15     0.00  -0.00   0.00     0.00  -0.02   0.01
  29   1     0.08  -0.12   0.23     0.00   0.00  -0.00     0.01  -0.02   0.03
  30   1     0.12   0.17   0.05     0.00   0.01   0.00    -0.09  -0.11  -0.03
  31   1     0.11   0.09   0.19     0.00   0.01   0.01    -0.08  -0.06  -0.14
  32   1     0.19   0.07   0.06     0.01   0.01   0.00    -0.12  -0.05  -0.03
  33   1     0.00  -0.00   0.00    -0.00   0.00   0.00    -0.05   0.03   0.02
  34   1     0.01  -0.00  -0.01     0.00   0.00  -0.00    -0.04   0.04   0.05
  35   1     0.11  -0.19  -0.00    -0.01  -0.01  -0.01     0.25  -0.41  -0.01
  36   1     0.11  -0.12  -0.13    -0.01  -0.02   0.00     0.24  -0.21  -0.27
  37   1     0.19  -0.07  -0.06     0.02  -0.01  -0.00     0.37  -0.12  -0.15
  38   1     0.02  -0.08   0.27     0.00  -0.00   0.01    -0.02   0.04  -0.19
  39   1     0.25  -0.01   0.22     0.01   0.00   0.01    -0.18  -0.01  -0.18
  40   1     0.08  -0.17   0.21     0.00  -0.01   0.01    -0.07   0.14  -0.17
  41   1    -0.04  -0.02   0.03    -0.00   0.00   0.00     0.02   0.00  -0.01
  42   1    -0.06   0.02  -0.04    -0.00   0.00  -0.00     0.01   0.01   0.02
  43   8    -0.00   0.00   0.00    -0.01   0.03   0.00     0.00  -0.01  -0.00
  44   6     0.00  -0.00  -0.00     0.01  -0.04   0.02    -0.00   0.01  -0.01
  45   8    -0.00   0.00  -0.00     0.00   0.00  -0.02    -0.00   0.00   0.01
  46   6     0.00   0.00  -0.00    -0.00   0.01  -0.01    -0.00  -0.00   0.00
  47   1     0.00  -0.00   0.00     0.00   0.00   0.00    -0.00   0.00  -0.00
  48   1    -0.00   0.00   0.00     0.00  -0.01   0.00     0.00  -0.00  -0.00
  49   1    -0.01  -0.00   0.00     0.01   0.00  -0.00     0.00  -0.00   0.00
  50   8     0.00  -0.01   0.01    -0.00  -0.00   0.01    -0.00  -0.01  -0.00
  51   8    -0.01  -0.00   0.01     0.27   0.07  -0.34     0.00   0.00  -0.00
  52   6     0.02  -0.01  -0.01    -0.62   0.24   0.17    -0.01   0.00  -0.00
  53   8    -0.01   0.01  -0.01     0.12  -0.21   0.20    -0.00  -0.00   0.00
  54   6    -0.00   0.01   0.00     0.10  -0.14  -0.10     0.00  -0.00   0.00
  55   1    -0.01  -0.01   0.00     0.18   0.18  -0.02    -0.00   0.00   0.00
  56   1     0.01  -0.00  -0.00    -0.17  -0.00   0.03    -0.00   0.00  -0.00
  57   1    -0.01  -0.00  -0.01     0.15   0.07   0.27    -0.00  -0.00  -0.00
                    115                    116                    117
                        a                      a                      a 
 Frequencies --  1421.0904              1435.1441              1444.5888
 Red. masses --     2.9200                 8.8459                 1.8698
 Frc consts  --     0.0000                 0.0000                 0.0000
 IR Inten    --     5.9940                 3.1102                26.4340
 Raman Activ --     0.0000                 0.0000                 0.0000
 Depolar     --     0.0000                 0.0000                 0.0000
 Atom AN      X      Y      Z        X      Y      Z        X      Y      Z
   1  53     0.00  -0.00   0.00     0.00   0.00  -0.00    -0.00   0.00  -0.00
   2   6    -0.00  -0.00  -0.01    -0.17  -0.12   0.35    -0.00  -0.00  -0.00
   3   6    -0.00  -0.00   0.01     0.19   0.19  -0.03    -0.00  -0.00   0.00
   4   6     0.01   0.01   0.00    -0.06  -0.10  -0.23     0.00   0.00  -0.00
   5   6     0.01   0.01   0.00    -0.12  -0.17  -0.25     0.00   0.00  -0.00
   6   1    -0.01   0.00   0.00     0.01  -0.01  -0.15    -0.00   0.00   0.00
   7   6    -0.01  -0.01   0.00     0.22   0.22   0.03    -0.00  -0.00   0.00
   8   1    -0.01  -0.01   0.00     0.10   0.09  -0.08    -0.00  -0.00   0.00
   9   6     0.00  -0.00  -0.01    -0.18  -0.12   0.39    -0.00  -0.00   0.00
  10   1    -0.01  -0.01   0.00     0.14   0.14  -0.08    -0.00  -0.00  -0.00
  11   1    -0.00  -0.00  -0.00    -0.01  -0.04  -0.20    -0.00  -0.00  -0.00
  12   1    -0.01  -0.00   0.01     0.16   0.11  -0.34    -0.00  -0.00  -0.00
  13   1     0.01  -0.01  -0.06     0.01   0.02  -0.03     0.00   0.00  -0.00
  14   8    -0.00  -0.00   0.00    -0.00  -0.00   0.00    -0.00  -0.00   0.00
  15   7    -0.01   0.00   0.01    -0.00   0.00   0.00     0.00   0.00  -0.00
  16   6    -0.02  -0.00   0.00     0.00  -0.00  -0.00    -0.00   0.00   0.00
  17   6    -0.00  -0.01  -0.00     0.00   0.00  -0.00    -0.00  -0.00  -0.00
  18   6     0.04   0.04  -0.00     0.00   0.00   0.00     0.00   0.00   0.00
  19   6     0.10  -0.14   0.13     0.00  -0.00   0.00    -0.00  -0.00  -0.00
  20   6    -0.22  -0.18  -0.15    -0.00  -0.01  -0.01    -0.00  -0.00  -0.00
  21   6     0.02   0.00  -0.01     0.00  -0.00  -0.00     0.00  -0.00  -0.00
  22   6    -0.06   0.05   0.03    -0.00   0.00   0.00     0.00  -0.00  -0.00
  23   6     0.04  -0.03   0.08     0.00  -0.00   0.00     0.00   0.00  -0.00
  24   6    -0.03  -0.01   0.02    -0.00  -0.00   0.00     0.00   0.00   0.00
  25   1    -0.05  -0.09  -0.01     0.00  -0.00  -0.00     0.00  -0.00  -0.00
  26   1    -0.05  -0.03  -0.03    -0.00  -0.00  -0.00    -0.00   0.00  -0.00
  27   1    -0.22   0.19  -0.09    -0.00   0.00  -0.00     0.00   0.00   0.00
  28   1    -0.02   0.19  -0.13     0.00   0.00  -0.00     0.00  -0.00   0.00
  29   1    -0.06   0.12  -0.23    -0.00   0.00  -0.00     0.00  -0.00   0.00
  30   1     0.23   0.30   0.08    -0.00   0.01   0.01     0.00   0.00  -0.00
  31   1     0.20   0.18   0.36    -0.00   0.01   0.01     0.00   0.00   0.00
  32   1     0.35   0.14   0.09     0.02   0.01   0.01     0.00   0.00  -0.00
  33   1    -0.02   0.00   0.01    -0.00   0.00  -0.00    -0.00   0.00  -0.00
  34   1    -0.02   0.00   0.02    -0.00   0.00   0.00    -0.00   0.00   0.00
  35   1     0.05  -0.10  -0.01     0.00  -0.01  -0.00     0.00   0.00   0.00
  36   1     0.05  -0.05  -0.06     0.00  -0.00  -0.00     0.00   0.00   0.00
  37   1     0.09  -0.03  -0.03     0.00   0.00  -0.01    -0.00   0.00   0.00
  38   1    -0.01   0.03  -0.10    -0.00   0.00  -0.00     0.00  -0.00   0.00
  39   1    -0.10  -0.01  -0.10    -0.00  -0.00  -0.00     0.00   0.00   0.00
  40   1    -0.02   0.07  -0.09    -0.00   0.00  -0.00    -0.00  -0.00   0.00
  41   1     0.03   0.02  -0.01     0.00   0.00  -0.00    -0.00  -0.00   0.00
  42   1     0.02  -0.02   0.01     0.00  -0.00   0.00    -0.00   0.00  -0.00
  43   8     0.00  -0.00  -0.00     0.00  -0.00  -0.01     0.00  -0.00  -0.00
  44   6     0.00   0.01   0.00    -0.00   0.00  -0.00    -0.00   0.00  -0.00
  45   8    -0.00  -0.00  -0.00     0.00   0.00   0.00     0.00  -0.00   0.00
  46   6    -0.00  -0.01   0.00     0.00   0.00   0.00    -0.00  -0.00  -0.00
  47   1     0.00   0.01   0.00    -0.00  -0.01  -0.00     0.01   0.01   0.01
  48   1    -0.00  -0.00   0.00     0.00  -0.00  -0.00    -0.01   0.00   0.01
  49   1     0.01   0.00  -0.00    -0.00  -0.00   0.01     0.00   0.00  -0.01
  50   8     0.00  -0.00   0.01     0.01   0.00  -0.00     0.00  -0.00   0.00
  51   8    -0.01   0.00   0.00    -0.01  -0.00   0.01    -0.05  -0.02   0.07
  52   6     0.01  -0.00  -0.00     0.01  -0.00  -0.01     0.08  -0.02  -0.08
  53   8    -0.00   0.00  -0.00     0.00   0.00  -0.00    -0.00   0.00   0.01
  54   6    -0.00   0.00   0.00    -0.00   0.00   0.00    -0.13  -0.14   0.13
  55   1    -0.00  -0.00   0.00    -0.00  -0.00  -0.00     0.19   0.57   0.10
  56   1     0.00   0.00  -0.00    -0.00   0.00   0.00     0.01   0.34  -0.56
  57   1    -0.00  -0.00  -0.01    -0.00   0.00  -0.00     0.18  -0.30  -0.04
                    118                    119                    120
                        a                      a                      a 
 Frequencies --  1447.8711              1449.2704              1451.2123
 Red. masses --     3.7633                 2.1172                 8.0621
 Frc consts  --     0.0000                 0.0000                 0.0000
 IR Inten    --    44.9197                 6.0474                11.7319
 Raman Activ --     0.0000                 0.0000                 0.0000
 Depolar     --     0.0000                 0.0000                 0.0000
 Atom AN      X      Y      Z        X      Y      Z        X      Y      Z
   1  53     0.00  -0.00   0.00    -0.00  -0.00  -0.00     0.00   0.01   0.00
   2   6     0.01   0.01   0.01     0.05   0.05   0.03    -0.18  -0.21  -0.15
   3   6    -0.00  -0.00  -0.02    -0.01  -0.02  -0.09     0.02   0.07   0.36
   4   6    -0.01  -0.01   0.01    -0.07  -0.06   0.04     0.25   0.23  -0.14
   5   6    -0.01  -0.01   0.01    -0.05  -0.05   0.04     0.21   0.19  -0.13
   6   1     0.00   0.00   0.01     0.03   0.03   0.06    -0.10  -0.13  -0.21
   7   6     0.00  -0.00  -0.01    -0.00  -0.02  -0.08     0.00   0.06   0.33
   8   1     0.01   0.01   0.00     0.04   0.04   0.01    -0.19  -0.19  -0.03
   9   6     0.01   0.01   0.01     0.04   0.04   0.03    -0.14  -0.16  -0.13
  10   1     0.01   0.01   0.00     0.05   0.05   0.01    -0.18  -0.19  -0.04
  11   1     0.01   0.01   0.01     0.03   0.04   0.06    -0.10  -0.14  -0.21
  12   1     0.00   0.00   0.00     0.01   0.01   0.01    -0.04  -0.05  -0.03
  13   1     0.01   0.00  -0.01     0.00  -0.00  -0.01     0.00   0.00   0.01
  14   8     0.00  -0.00   0.00    -0.00  -0.00   0.00    -0.00  -0.00  -0.00
  15   7    -0.00  -0.00   0.00     0.00   0.00   0.00    -0.00  -0.00  -0.00
  16   6     0.00  -0.00  -0.00    -0.00   0.00   0.00     0.00   0.00  -0.00
  17   6     0.00   0.00   0.00     0.00  -0.00  -0.00     0.00   0.00   0.00
  18   6    -0.00   0.00   0.00     0.00   0.00   0.00    -0.00  -0.00   0.00
  19   6    -0.00   0.00  -0.00     0.01  -0.00   0.01    -0.00   0.00   0.00
  20   6     0.00  -0.00   0.00    -0.01  -0.00  -0.00     0.01   0.00  -0.00
  21   6    -0.00  -0.00   0.00     0.00  -0.00   0.00    -0.00   0.00  -0.00
  22   6     0.00   0.00  -0.00    -0.00   0.00   0.00    -0.00   0.00   0.00
  23   6    -0.00  -0.00  -0.00     0.00  -0.00   0.00    -0.00   0.00  -0.00
  24   6    -0.00  -0.00  -0.00    -0.00  -0.00   0.00    -0.00   0.00  -0.00
  25   1     0.00  -0.00  -0.00    -0.00  -0.00  -0.00     0.00   0.00   0.00
  26   1    -0.00  -0.00  -0.00    -0.00   0.00  -0.00     0.00  -0.00   0.00
  27   1     0.00  -0.00   0.00    -0.01  -0.01  -0.01    -0.00  -0.01  -0.01
  28   1    -0.00  -0.00   0.00    -0.00   0.01  -0.01     0.01  -0.00  -0.01
  29   1     0.00   0.00  -0.00    -0.01  -0.00  -0.00     0.01  -0.00   0.00
  30   1    -0.00  -0.00   0.00     0.01   0.01  -0.00    -0.02  -0.00   0.02
  31   1    -0.00   0.00  -0.00     0.01   0.00   0.01    -0.02  -0.00  -0.02
  32   1     0.00   0.00  -0.00     0.00   0.00  -0.00     0.00  -0.01   0.02
  33   1    -0.00  -0.00   0.00    -0.00   0.00  -0.00    -0.00  -0.00   0.00
  34   1     0.00  -0.00  -0.00     0.00   0.00   0.00     0.00  -0.00  -0.00
  35   1    -0.01   0.00  -0.01    -0.00  -0.00  -0.00    -0.00  -0.00  -0.00
  36   1    -0.01  -0.01   0.01    -0.00  -0.00   0.00    -0.00  -0.00  -0.00
  37   1     0.00  -0.00   0.00     0.00  -0.00  -0.00     0.00  -0.00  -0.00
  38   1     0.00   0.00  -0.00     0.00   0.00  -0.01    -0.00  -0.00   0.00
  39   1    -0.00   0.00   0.00    -0.00   0.00  -0.00     0.00  -0.00   0.00
  40   1     0.00  -0.00   0.00    -0.00   0.00  -0.00    -0.00   0.00  -0.00
  41   1    -0.00   0.00   0.00     0.00   0.00  -0.00     0.00  -0.00  -0.00
  42   1     0.00   0.00   0.00     0.00  -0.00   0.00     0.00   0.00   0.00
  43   8    -0.00   0.01   0.00    -0.02   0.03   0.01    -0.00   0.01   0.00
  44   6    -0.00  -0.01   0.01     0.05  -0.04   0.01     0.02  -0.02   0.01
  45   8     0.00  -0.00  -0.01    -0.00   0.01   0.01     0.00  -0.00  -0.00
  46   6    -0.02  -0.01  -0.00     0.18   0.13   0.01     0.04   0.04   0.01
  47   1     0.01   0.04   0.01    -0.18  -0.56  -0.18    -0.06  -0.15  -0.06
  48   1    -0.00  -0.02   0.01     0.05   0.23  -0.17     0.03   0.04  -0.06
  49   1     0.05   0.01  -0.02    -0.60  -0.11   0.21    -0.14  -0.03   0.06
  50   8    -0.00   0.00   0.00    -0.00  -0.00   0.00     0.00   0.00  -0.00
  51   8     0.11   0.03  -0.15     0.01   0.00  -0.01     0.01   0.00  -0.01
  52   6    -0.28   0.16   0.10    -0.02   0.01   0.01    -0.02   0.01   0.01
  53   8     0.06  -0.10   0.10     0.00  -0.01   0.01     0.00  -0.00   0.01
  54   6     0.18   0.02   0.15     0.01  -0.00   0.01     0.01   0.00   0.01
  55   1    -0.40  -0.16   0.14    -0.02  -0.00   0.01    -0.02  -0.01   0.01
  56   1     0.27   0.10  -0.23     0.02   0.01  -0.02     0.02   0.01  -0.01
  57   1    -0.24  -0.21  -0.57    -0.01  -0.02  -0.04    -0.01  -0.01  -0.03
                    121                    122                    123
                        a                      a                      a 
 Frequencies --  1453.5516              1468.2679              1473.5855
 Red. masses --     1.6243                 1.7873                 1.6251
 Frc consts  --     0.0000                 0.0000                 0.0000
 IR Inten    --    15.8297                 2.7647                 0.9027
 Raman Activ --     0.0000                 0.0000                 0.0000
 Depolar     --     0.0000                 0.0000                 0.0000
 Atom AN      X      Y      Z        X      Y      Z        X      Y      Z
   1  53     0.00   0.00   0.00     0.00  -0.00   0.00    -0.00  -0.00  -0.00
   2   6    -0.01  -0.01  -0.00     0.00   0.00  -0.00     0.00   0.01   0.00
   3   6     0.00   0.00   0.01    -0.00  -0.00  -0.01    -0.00  -0.00  -0.01
   4   6     0.01   0.01  -0.01    -0.00  -0.00   0.00    -0.00  -0.00   0.00
   5   6     0.01   0.00  -0.01    -0.00  -0.00   0.00    -0.00  -0.00   0.00
   6   1    -0.00  -0.00  -0.01     0.00   0.00   0.01     0.00   0.00   0.01
   7   6     0.00   0.00   0.01    -0.00  -0.00  -0.01    -0.00  -0.00  -0.00
   8   1    -0.01  -0.00  -0.00     0.00   0.00   0.00     0.00   0.00   0.00
   9   6    -0.01  -0.01  -0.00     0.00   0.00   0.00     0.00   0.00   0.00
  10   1    -0.00  -0.01  -0.00     0.00   0.00   0.00     0.00   0.00   0.00
  11   1    -0.00  -0.01  -0.01     0.00   0.00   0.00     0.00   0.00   0.00
  12   1    -0.00  -0.00  -0.00     0.00   0.00   0.00     0.00   0.00   0.00
  13   1    -0.00   0.00  -0.00    -0.00  -0.01  -0.01     0.01  -0.02  -0.03
  14   8     0.00  -0.00  -0.00     0.00   0.00   0.00    -0.00  -0.00   0.00
  15   7    -0.00  -0.00  -0.00    -0.00  -0.01  -0.01     0.00   0.00  -0.00
  16   6    -0.00   0.00   0.00    -0.01   0.01   0.02    -0.01   0.01   0.02
  17   6    -0.00   0.00   0.00     0.01   0.03   0.02    -0.03   0.01   0.00
  18   6     0.00  -0.00  -0.00    -0.01   0.02   0.14     0.01  -0.01  -0.01
  19   6     0.00   0.00   0.00    -0.08   0.01   0.04    -0.03   0.06   0.08
  20   6     0.00   0.00   0.00     0.02   0.02  -0.04     0.02  -0.02  -0.04
  21   6     0.00  -0.00  -0.00    -0.00   0.16  -0.04     0.01  -0.09   0.00
  22   6    -0.00  -0.00  -0.00     0.01  -0.03   0.06    -0.07  -0.07  -0.07
  23   6    -0.00   0.00   0.00     0.07   0.05   0.00    -0.04   0.11   0.06
  24   6     0.00   0.00   0.00    -0.01  -0.00  -0.00     0.03   0.01   0.01
  25   1    -0.00   0.00   0.00     0.15  -0.18  -0.22     0.00   0.01   0.01
  26   1     0.00   0.00  -0.00    -0.12   0.09  -0.29     0.01  -0.00   0.01
  27   1    -0.01  -0.00  -0.01    -0.10   0.04  -0.06    -0.16  -0.15  -0.19
  28   1     0.00   0.00  -0.01     0.15  -0.14  -0.17     0.16  -0.04  -0.27
  29   1    -0.00  -0.00   0.00     0.25   0.06   0.05     0.10  -0.04   0.13
  30   1    -0.00  -0.00   0.00    -0.06   0.05   0.09    -0.09   0.02   0.10
  31   1    -0.00  -0.00  -0.00    -0.02  -0.05  -0.06    -0.07   0.06  -0.03
  32   1    -0.00  -0.00  -0.00     0.00  -0.08   0.11     0.06  -0.01   0.06
  33   1    -0.00   0.00   0.00     0.15  -0.25   0.23    -0.09   0.14  -0.13
  34   1    -0.00   0.00   0.00    -0.14  -0.33  -0.09     0.06   0.19   0.08
  35   1     0.00  -0.00   0.00    -0.03  -0.12  -0.07     0.24   0.14   0.24
  36   1     0.00   0.00  -0.00     0.02   0.15   0.03     0.19   0.11  -0.14
  37   1     0.00  -0.00  -0.00    -0.01   0.08  -0.20    -0.15   0.01   0.15
  38   1    -0.00  -0.01   0.01    -0.13  -0.24  -0.06    -0.09  -0.24   0.16
  39   1     0.01  -0.02  -0.01     0.11  -0.04   0.04     0.20  -0.33  -0.19
  40   1     0.00   0.01  -0.01    -0.25   0.05   0.02     0.06   0.13  -0.19
  41   1    -0.00  -0.00  -0.00     0.01  -0.00  -0.01    -0.05  -0.07   0.02
  42   1    -0.00  -0.00  -0.00     0.01   0.01   0.01    -0.07   0.01  -0.04
  43   8    -0.00  -0.01  -0.00    -0.00   0.00  -0.00    -0.00   0.01   0.00
  44   6     0.00   0.01   0.03     0.00  -0.00   0.00     0.00  -0.00   0.01
  45   8     0.01  -0.01  -0.04    -0.00  -0.00  -0.00     0.00  -0.00  -0.01
  46   6     0.12  -0.16  -0.11    -0.00   0.00   0.00    -0.00   0.01   0.00
  47   1     0.30   0.10   0.34    -0.00  -0.00  -0.00    -0.01  -0.00  -0.01
  48   1    -0.38   0.45   0.40     0.00  -0.00  -0.00     0.01  -0.01  -0.01
  49   1    -0.38   0.03  -0.27     0.00  -0.00   0.00     0.01  -0.00   0.01
  50   8     0.00  -0.00   0.00    -0.00   0.00  -0.00     0.00   0.00   0.00
  51   8     0.00   0.00  -0.00     0.00   0.00  -0.00     0.01   0.00  -0.00
  52   6    -0.01   0.00   0.00    -0.00   0.00  -0.00    -0.01   0.00   0.00
  53   8     0.00  -0.00   0.00     0.00  -0.00   0.00     0.00  -0.00   0.00
  54   6     0.00   0.00  -0.00     0.00  -0.00   0.00     0.00  -0.00   0.00
  55   1    -0.01  -0.01   0.00    -0.00  -0.00   0.00    -0.00  -0.00   0.00
  56   1     0.00  -0.00   0.00     0.00   0.00  -0.00     0.00   0.00  -0.00
  57   1    -0.00   0.00  -0.00    -0.00  -0.00  -0.00    -0.00  -0.00  -0.00
                    124                    125                    126
                        a                      a                      a 
 Frequencies --  1476.6855              1480.1942              1484.7235
 Red. masses --     1.7588                 1.7080                 1.6406
 Frc consts  --     0.0000                 0.0000                 0.0000
 IR Inten    --     0.7305                 2.7876                12.1375
 Raman Activ --     0.0000                 0.0000                 0.0000
 Depolar     --     0.0000                 0.0000                 0.0000
 Atom AN      X      Y      Z        X      Y      Z        X      Y      Z
   1  53     0.00  -0.00   0.00    -0.00  -0.00  -0.00     0.00   0.00  -0.00
   2   6     0.00   0.00  -0.00    -0.00  -0.00   0.00     0.00   0.00  -0.00
   3   6    -0.00  -0.00  -0.00     0.00   0.00   0.00    -0.00  -0.00  -0.00
   4   6     0.00   0.00   0.00     0.00   0.00  -0.00    -0.00  -0.00   0.00
   5   6    -0.00  -0.00   0.00     0.00   0.00  -0.00    -0.00  -0.00   0.00
   6   1     0.00   0.00   0.00    -0.00  -0.00  -0.00     0.01   0.00   0.01
   7   6    -0.00  -0.00  -0.00     0.00   0.00   0.00    -0.00  -0.00  -0.01
   8   1     0.00   0.00   0.00    -0.00  -0.00  -0.00     0.00   0.00   0.00
   9   6     0.00   0.00  -0.00    -0.00  -0.00  -0.00     0.00   0.00   0.00
  10   1    -0.00  -0.00   0.00    -0.00  -0.00  -0.00     0.00   0.00   0.00
  11   1     0.00   0.00   0.00    -0.00  -0.00  -0.00     0.00   0.00   0.00
  12   1    -0.00  -0.00   0.00    -0.00  -0.00  -0.00    -0.00   0.00   0.00
  13   1    -0.00  -0.02  -0.01     0.01   0.01  -0.02    -0.03   0.00   0.04
  14   8     0.00   0.00  -0.00    -0.00  -0.00   0.00     0.00   0.00  -0.00
  15   7    -0.00   0.00   0.00     0.00  -0.00  -0.00    -0.01  -0.01  -0.01
  16   6     0.00  -0.00   0.00     0.03   0.01  -0.00     0.04   0.02   0.02
  17   6     0.02   0.02   0.02    -0.04  -0.01   0.00     0.02   0.03  -0.01
  18   6    -0.01  -0.05  -0.18    -0.02  -0.00   0.04    -0.01   0.01   0.09
  19   6     0.04   0.06   0.06     0.09   0.03  -0.03     0.05   0.10   0.06
  20   6     0.01  -0.05   0.02     0.00  -0.05   0.05     0.05  -0.06  -0.04
  21   6    -0.02   0.05  -0.01     0.00   0.17  -0.04     0.00  -0.02   0.00
  22   6     0.03  -0.03   0.08    -0.07  -0.05  -0.05     0.07   0.10  -0.01
  23   6     0.04   0.04  -0.02    -0.06  -0.02   0.03    -0.04  -0.03   0.01
  24   6    -0.08   0.01  -0.01    -0.02   0.00  -0.00    -0.03   0.00   0.00
  25   1    -0.18   0.28   0.31     0.05  -0.03  -0.06     0.11  -0.11  -0.15
  26   1     0.18  -0.11   0.39    -0.03   0.02  -0.07    -0.08   0.06  -0.19
  27   1    -0.09  -0.21  -0.17     0.09  -0.16  -0.01    -0.09  -0.33  -0.23
  28   1     0.05   0.07  -0.15    -0.14   0.16   0.13     0.05   0.11  -0.19
  29   1    -0.08  -0.10   0.11    -0.30  -0.13   0.03    -0.17  -0.17   0.18
  30   1    -0.03  -0.06  -0.03    -0.00  -0.09  -0.08    -0.18  -0.02   0.15
  31   1    -0.06   0.15   0.05    -0.06   0.13   0.05    -0.17   0.19  -0.04
  32   1     0.05   0.12  -0.11     0.02   0.13  -0.15     0.13   0.05   0.03
  33   1     0.05  -0.09   0.08     0.18  -0.26   0.23    -0.02   0.02  -0.00
  34   1    -0.04  -0.12  -0.05    -0.16  -0.35  -0.09     0.01   0.02   0.00
  35   1    -0.09  -0.15  -0.13     0.25   0.10   0.22    -0.25   0.01  -0.18
  36   1    -0.03   0.15   0.08     0.20   0.11  -0.14    -0.25  -0.33   0.12
  37   1     0.01   0.09  -0.25    -0.14   0.02   0.12     0.20  -0.12   0.10
  38   1    -0.09  -0.17  -0.02     0.08   0.13   0.08     0.06   0.12   0.04
  39   1     0.09  -0.03   0.05    -0.06  -0.05  -0.10    -0.04   0.00  -0.04
  40   1    -0.16   0.02   0.03     0.21   0.01  -0.08     0.13  -0.00  -0.04
  41   1     0.14   0.05  -0.11     0.05   0.03  -0.03     0.04   0.01  -0.03
  42   1     0.17  -0.06   0.08     0.06  -0.01   0.04     0.04  -0.01   0.03
  43   8     0.00   0.00  -0.00    -0.00   0.00   0.00     0.00  -0.01   0.00
  44   6    -0.00   0.00   0.00    -0.00  -0.00   0.01    -0.00   0.01  -0.00
  45   8     0.00  -0.00  -0.00     0.00  -0.00  -0.01     0.00  -0.00   0.00
  46   6    -0.00   0.00   0.00    -0.00   0.00  -0.00    -0.00  -0.00   0.00
  47   1    -0.00   0.00  -0.00    -0.00  -0.00  -0.00     0.00   0.01   0.00
  48   1     0.00  -0.01  -0.00     0.00  -0.00  -0.00     0.00  -0.01   0.00
  49   1     0.01   0.00   0.00     0.00   0.00   0.00     0.01   0.00   0.00
  50   8    -0.00   0.00   0.00     0.00  -0.00   0.00    -0.00   0.00  -0.00
  51   8    -0.00  -0.00   0.00     0.00   0.00  -0.00    -0.01  -0.00   0.01
  52   6     0.00  -0.00  -0.00    -0.01   0.00   0.00     0.02  -0.01  -0.00
  53   8    -0.00   0.00  -0.00     0.00  -0.00   0.00    -0.00   0.01  -0.00
  54   6    -0.00   0.00   0.00     0.00  -0.00  -0.00    -0.00   0.00  -0.00
  55   1    -0.00   0.00   0.00    -0.00  -0.00   0.00     0.00  -0.00  -0.00
  56   1     0.00   0.00  -0.00     0.00   0.00  -0.00    -0.00  -0.00   0.00
  57   1    -0.00  -0.00  -0.00     0.00  -0.00  -0.00     0.00   0.00   0.00
                    127                    128                    129
                        a                      a                      a 
 Frequencies --  1489.1384              1491.7569              1495.6111
 Red. masses --     1.6565                 1.6986                 1.6605
 Frc consts  --     0.0000                 0.0000                 0.0000
 IR Inten    --     4.4665                 7.2691                15.0319
 Raman Activ --     0.0000                 0.0000                 0.0000
 Depolar     --     0.0000                 0.0000                 0.0000
 Atom AN      X      Y      Z        X      Y      Z        X      Y      Z
   1  53     0.00   0.00   0.00     0.00   0.00  -0.00    -0.00   0.00   0.00
   2   6    -0.00  -0.00   0.00    -0.00  -0.00   0.00    -0.01  -0.00   0.00
   3   6     0.00   0.00   0.00     0.00   0.00   0.00     0.00   0.00   0.00
   4   6     0.00   0.00  -0.00    -0.00  -0.00  -0.00     0.00  -0.00  -0.00
   5   6     0.00   0.00  -0.00    -0.00  -0.00  -0.00     0.00   0.00  -0.00
   6   1    -0.01  -0.00  -0.01    -0.00   0.00  -0.00    -0.01  -0.00  -0.01
   7   6     0.00   0.00   0.01     0.00   0.00  -0.00     0.00   0.00   0.01
   8   1    -0.00  -0.00  -0.00     0.00   0.00  -0.00     0.00  -0.00  -0.00
   9   6    -0.00  -0.00  -0.00    -0.00  -0.00   0.01    -0.00  -0.00   0.00
  10   1    -0.00  -0.00  -0.00     0.00   0.00  -0.00     0.00  -0.00  -0.00
  11   1    -0.00  -0.00  -0.00     0.00   0.00  -0.00    -0.00  -0.00  -0.00
  12   1    -0.00  -0.00  -0.00     0.00   0.00  -0.00     0.00   0.00  -0.00
  13   1    -0.01  -0.02   0.03     0.01   0.07  -0.01     0.02   0.03  -0.02
  14   8     0.00   0.01  -0.01     0.00  -0.00   0.00    -0.00  -0.00   0.01
  15   7     0.00  -0.01  -0.01    -0.01  -0.02  -0.00     0.01  -0.01  -0.01
  16   6    -0.00   0.00   0.01    -0.02   0.00  -0.00    -0.02   0.07  -0.00
  17   6    -0.01   0.00   0.08    -0.00   0.06  -0.02    -0.00   0.00   0.00
  18   6     0.00   0.01   0.03     0.00  -0.03  -0.10    -0.00   0.01   0.04
  19   6     0.06  -0.01  -0.03    -0.04  -0.02   0.01     0.06   0.06   0.03
  20   6    -0.03   0.01   0.04    -0.03   0.06  -0.01    -0.11   0.13   0.00
  21   6     0.01  -0.01  -0.01    -0.01   0.12  -0.01    -0.00  -0.03  -0.00
  22   6     0.06  -0.03   0.10     0.04   0.09  -0.07    -0.00  -0.01   0.01
  23   6    -0.09   0.07   0.05    -0.05   0.04   0.06    -0.02   0.01  -0.01
  24   6     0.12   0.00   0.00     0.05   0.01  -0.01    -0.12  -0.01   0.01
  25   1     0.04  -0.04  -0.05    -0.10   0.14   0.16     0.01  -0.07  -0.05
  26   1    -0.03   0.02  -0.07     0.10  -0.05   0.20    -0.02   0.04  -0.08
  27   1     0.06  -0.01   0.04    -0.03   0.10   0.03    -0.04  -0.23  -0.14
  28   1    -0.11   0.10   0.12     0.06  -0.09  -0.03    -0.01   0.10  -0.07
  29   1    -0.16  -0.04  -0.04     0.15   0.07  -0.03    -0.16  -0.14   0.12
  30   1     0.10  -0.04  -0.13     0.10   0.06  -0.03     0.31   0.15  -0.14
  31   1     0.07  -0.04   0.05     0.13  -0.18  -0.00     0.35  -0.46   0.01
  32   1    -0.06   0.04  -0.09    -0.08  -0.10   0.07    -0.23  -0.23   0.12
  33   1    -0.03   0.03  -0.00     0.12  -0.20   0.18    -0.03   0.04  -0.03
  34   1     0.02   0.04   0.00    -0.11  -0.27  -0.08     0.02   0.06   0.02
  35   1    -0.18  -0.22  -0.23    -0.12   0.14  -0.03     0.01  -0.01   0.00
  36   1    -0.09   0.19   0.14    -0.17  -0.38   0.03     0.01   0.03  -0.00
  37   1     0.03   0.12  -0.36     0.15  -0.18   0.29    -0.01   0.01  -0.03
  38   1     0.00  -0.07   0.18    -0.01  -0.06   0.11     0.01   0.00   0.04
  39   1     0.10  -0.29  -0.23     0.08  -0.21  -0.16     0.02  -0.02  -0.01
  40   1     0.23   0.10  -0.21     0.12   0.10  -0.17     0.04  -0.00  -0.01
  41   1    -0.21  -0.10   0.15    -0.08  -0.04   0.05     0.22   0.10  -0.15
  42   1    -0.24   0.08  -0.13    -0.08   0.03  -0.05     0.24  -0.08   0.14
  43   8    -0.00   0.00  -0.00     0.00  -0.00   0.00    -0.00   0.01   0.00
  44   6     0.00  -0.00   0.00     0.00  -0.00  -0.00     0.00  -0.01   0.01
  45   8    -0.00  -0.00  -0.00    -0.00   0.00   0.00    -0.00   0.00  -0.01
  46   6    -0.00   0.00   0.00    -0.00   0.00   0.00    -0.00   0.00  -0.00
  47   1    -0.00  -0.00  -0.01    -0.00  -0.00  -0.00     0.00   0.01   0.00
  48   1     0.01  -0.00  -0.01     0.00  -0.00  -0.00     0.00  -0.00   0.00
  49   1     0.00  -0.00   0.00     0.00  -0.00   0.00     0.01   0.00  -0.01
  50   8    -0.00   0.00  -0.01     0.00  -0.01   0.01     0.00  -0.00   0.00
  51   8    -0.00  -0.00   0.00    -0.00  -0.00   0.00     0.00  -0.00  -0.00
  52   6     0.00   0.00  -0.00     0.01  -0.01   0.00    -0.00   0.00   0.00
  53   8    -0.00  -0.00   0.00    -0.00   0.00  -0.00     0.00  -0.00  -0.00
  54   6    -0.00  -0.00   0.00    -0.00   0.00  -0.00     0.00  -0.00  -0.00
  55   1    -0.00   0.00   0.00     0.00   0.00   0.00    -0.00   0.00   0.00
  56   1     0.00   0.00  -0.00    -0.00   0.00  -0.00     0.00   0.00  -0.00
  57   1    -0.00  -0.00  -0.00     0.00  -0.00   0.00     0.00  -0.00  -0.00
                    130                    131                    132
                        a                      a                      a 
 Frequencies --  1497.8037              1506.5038              1513.0087
 Red. masses --     1.6065                 1.7279                 1.6725
 Frc consts  --     0.0000                 0.0000                 0.0000
 IR Inten    --     0.8016                 0.3021                 5.6353
 Raman Activ --     0.0000                 0.0000                 0.0000
 Depolar     --     0.0000                 0.0000                 0.0000
 Atom AN      X      Y      Z        X      Y      Z        X      Y      Z
   1  53    -0.00  -0.00  -0.00     0.00   0.00  -0.00     0.00  -0.00   0.00
   2   6     0.01   0.01  -0.00     0.00   0.00  -0.00    -0.00  -0.00   0.00
   3   6    -0.00  -0.00  -0.01    -0.00  -0.00  -0.00    -0.00  -0.00   0.00
   4   6    -0.00  -0.00   0.01    -0.00  -0.00   0.00     0.00   0.00  -0.00
   5   6    -0.01  -0.00   0.00    -0.00  -0.00   0.00     0.00   0.00   0.00
   6   1     0.01   0.00   0.02     0.01   0.00   0.01    -0.00  -0.00  -0.00
   7   6    -0.00  -0.00  -0.01    -0.00  -0.00  -0.00     0.00   0.00   0.00
   8   1     0.00   0.00   0.00    -0.00   0.00   0.00     0.00   0.00  -0.00
   9   6     0.00   0.00   0.00     0.00   0.00   0.00     0.00   0.00  -0.00
  10   1     0.00   0.00   0.00    -0.00   0.00   0.00    -0.00  -0.00   0.00
  11   1     0.00   0.00   0.01     0.00   0.00   0.00    -0.00  -0.00  -0.00
  12   1     0.00   0.00   0.00    -0.00  -0.00   0.00    -0.00  -0.00   0.00
  13   1     0.01  -0.05  -0.08    -0.01  -0.01  -0.01    -0.01  -0.01   0.03
  14   8     0.00  -0.00   0.01     0.00   0.00  -0.00     0.00   0.00  -0.00
  15   7    -0.01   0.02   0.01    -0.01  -0.00   0.01     0.01   0.00  -0.01
  16   6     0.02   0.02  -0.07     0.03  -0.02  -0.04    -0.04  -0.03   0.04
  17   6    -0.02  -0.04   0.03     0.01   0.04   0.01    -0.03  -0.02   0.03
  18   6    -0.01  -0.02  -0.05    -0.01   0.01   0.04     0.01   0.01   0.00
  19   6     0.01  -0.01   0.01     0.01  -0.06  -0.09    -0.13   0.00   0.02
  20   6     0.04   0.04  -0.16     0.04  -0.02  -0.04     0.00  -0.02   0.05
  21   6     0.00   0.04  -0.01    -0.00  -0.04   0.00     0.01  -0.00  -0.01
  22   6    -0.00  -0.04   0.04     0.02   0.01  -0.00     0.01  -0.02   0.03
  23   6    -0.07  -0.06  -0.01    -0.03   0.10   0.02    -0.13  -0.05  -0.00
  24   6     0.02   0.00  -0.01    -0.18  -0.00   0.00    -0.11  -0.01   0.01
  25   1    -0.07   0.09   0.11     0.03  -0.03  -0.04     0.00  -0.02  -0.02
  26   1     0.06  -0.04   0.13    -0.04   0.00  -0.04    -0.01   0.00  -0.02
  27   1     0.01  -0.01   0.00     0.18   0.18   0.22    -0.08   0.14   0.00
  28   1    -0.01   0.02   0.00    -0.16   0.01   0.30     0.21  -0.27  -0.15
  29   1    -0.04  -0.00  -0.02    -0.08   0.06  -0.15     0.39   0.12   0.03
  30   1    -0.22   0.24   0.41    -0.15   0.02   0.15     0.04  -0.10  -0.12
  31   1    -0.08  -0.12  -0.19    -0.12   0.08  -0.07    -0.01   0.09   0.07
  32   1     0.12  -0.28   0.45     0.10  -0.02   0.10    -0.03   0.12  -0.17
  33   1     0.04  -0.05   0.04    -0.04   0.04  -0.03    -0.01   0.01  -0.00
  34   1    -0.02  -0.06  -0.02     0.02   0.06   0.02    -0.00   0.01   0.01
  35   1     0.03  -0.08  -0.02    -0.06   0.01  -0.04    -0.02  -0.07  -0.05
  36   1     0.06   0.17   0.00    -0.06  -0.05   0.03     0.00   0.09   0.03
  37   1    -0.06   0.09  -0.16     0.04  -0.02   0.01    -0.02   0.05  -0.12
  38   1     0.14   0.25   0.07    -0.09  -0.25   0.13     0.19   0.31   0.19
  39   1    -0.12   0.06  -0.04     0.19  -0.25  -0.11    -0.10  -0.02  -0.11
  40   1     0.25  -0.05  -0.01    -0.01   0.10  -0.12     0.40  -0.04  -0.07
  41   1    -0.04  -0.02   0.03     0.31   0.15  -0.22     0.20   0.10  -0.14
  42   1    -0.04   0.02  -0.02     0.34  -0.11   0.19     0.21  -0.07   0.12
  43   8     0.00  -0.00  -0.00     0.00  -0.00   0.00    -0.00  -0.00  -0.00
  44   6    -0.00   0.00  -0.00    -0.00   0.00  -0.01     0.00   0.00  -0.00
  45   8     0.00   0.00   0.00     0.00   0.00   0.01    -0.00  -0.00   0.00
  46   6     0.00  -0.00  -0.00     0.00   0.00   0.00     0.00  -0.00   0.00
  47   1     0.00   0.00   0.00    -0.00  -0.00  -0.00    -0.00  -0.00  -0.00
  48   1    -0.00   0.00   0.00     0.00  -0.00  -0.00     0.00   0.00  -0.00
  49   1    -0.00   0.00  -0.00    -0.00  -0.00   0.00    -0.00  -0.00   0.00
  50   8     0.00   0.00   0.01    -0.00   0.00   0.00    -0.00   0.00  -0.00
  51   8     0.00   0.00  -0.00    -0.00  -0.00   0.00    -0.00   0.00  -0.00
  52   6    -0.00  -0.00   0.00     0.00  -0.00   0.00    -0.00   0.00  -0.00
  53   8    -0.00   0.00  -0.00    -0.00   0.00  -0.00     0.00  -0.00   0.00
  54   6    -0.00  -0.00   0.00    -0.00   0.00   0.00    -0.00   0.00   0.00
  55   1    -0.00   0.00   0.00     0.00   0.00  -0.00     0.00  -0.00  -0.00
  56   1    -0.00   0.00  -0.00    -0.00   0.00  -0.00     0.00  -0.00   0.00
  57   1     0.00  -0.00  -0.00     0.00  -0.00   0.00    -0.00   0.00   0.00
                    133                    134                    135
                        a                      a                      a 
 Frequencies --  1582.1906              1597.4554              1606.5568
 Red. masses --    11.4610                13.0063                11.6917
 Frc consts  --     0.0000                 0.0000                 0.0000
 IR Inten    --     4.5998               272.1942                10.5929
 Raman Activ --     0.0000                 0.0000                 0.0000
 Depolar     --     0.0000                 0.0000                 0.0000
 Atom AN      X      Y      Z        X      Y      Z        X      Y      Z
   1  53     0.00   0.00  -0.00    -0.00  -0.01   0.02     0.00   0.00  -0.01
   2   6     0.11   0.12   0.09    -0.04  -0.02   0.09    -0.22  -0.15   0.47
   3   6    -0.20  -0.25  -0.31    -0.00  -0.01  -0.08     0.03  -0.02  -0.35
   4   6    -0.30  -0.32  -0.11     0.03   0.02  -0.04     0.21   0.18  -0.18
   5   6     0.32   0.34   0.09    -0.02  -0.02   0.04    -0.18  -0.15   0.18
   6   1     0.00   0.02   0.10     0.01   0.00   0.00     0.05   0.05   0.03
   7   6     0.21   0.27   0.34     0.00   0.01   0.07    -0.04   0.00   0.28
   8   1     0.07   0.06  -0.04     0.00   0.01  -0.01    -0.03  -0.04  -0.05
   9   6    -0.14  -0.16  -0.10     0.03   0.02  -0.08     0.20   0.14  -0.42
  10   1    -0.08  -0.08   0.03     0.01   0.01   0.01     0.04   0.05   0.05
  11   1    -0.01  -0.03  -0.11    -0.01  -0.01  -0.01    -0.04  -0.05  -0.02
  12   1    -0.03  -0.04  -0.03    -0.01  -0.01   0.01    -0.04  -0.03   0.09
  13   1     0.00   0.00  -0.00    -0.01  -0.01   0.01     0.00   0.01  -0.01
  14   8    -0.00  -0.00   0.00     0.00   0.00  -0.00     0.00  -0.00   0.00
  15   7     0.00  -0.00   0.00    -0.00  -0.00   0.00    -0.00  -0.00   0.00
  16   6    -0.00   0.00  -0.00     0.00  -0.00   0.00     0.00   0.00  -0.00
  17   6    -0.00   0.00  -0.00    -0.00  -0.00   0.00    -0.00   0.00  -0.00
  18   6     0.00  -0.00  -0.00    -0.00   0.00   0.00     0.00  -0.00  -0.00
  19   6     0.00  -0.00   0.00    -0.00   0.00   0.00     0.00  -0.00   0.00
  20   6    -0.00  -0.00  -0.00     0.00  -0.00   0.00     0.00   0.00  -0.00
  21   6     0.00   0.00   0.00     0.00  -0.00   0.00     0.00   0.00  -0.00
  22   6     0.00   0.00  -0.00    -0.00  -0.00   0.00     0.00   0.00  -0.00
  23   6     0.00  -0.00   0.00     0.00  -0.00  -0.00     0.00  -0.00   0.00
  24   6     0.00   0.00  -0.00     0.00   0.00  -0.00    -0.00  -0.00   0.00
  25   1    -0.00   0.00   0.00     0.00  -0.00  -0.00    -0.00   0.00   0.00
  26   1     0.00  -0.00   0.00    -0.00   0.00  -0.00     0.00  -0.00   0.00
  27   1    -0.00   0.00  -0.00    -0.00  -0.00  -0.00     0.00   0.00   0.00
  28   1     0.00   0.00  -0.00     0.00  -0.00  -0.00    -0.00   0.00   0.00
  29   1     0.00   0.00  -0.00     0.00   0.00   0.00    -0.00   0.00  -0.00
  30   1     0.00   0.00   0.00    -0.00  -0.00  -0.00    -0.00   0.00   0.00
  31   1     0.00   0.00   0.00    -0.00   0.00   0.00    -0.00  -0.00  -0.00
  32   1     0.00  -0.00   0.00    -0.00   0.00  -0.00     0.00  -0.00   0.00
  33   1     0.00  -0.00   0.00    -0.00   0.00  -0.00     0.00  -0.00   0.00
  34   1    -0.00  -0.00   0.00     0.00   0.00  -0.00    -0.00  -0.00   0.00
  35   1    -0.00  -0.00  -0.00     0.00  -0.00  -0.00    -0.00   0.00  -0.00
  36   1    -0.00  -0.00   0.00     0.00   0.00  -0.00    -0.00  -0.00   0.00
  37   1     0.00  -0.00   0.00     0.00   0.00  -0.00     0.00  -0.00   0.00
  38   1     0.00   0.00  -0.00    -0.00   0.00  -0.00    -0.00  -0.00   0.00
  39   1    -0.00  -0.00  -0.00    -0.00   0.00   0.00     0.00  -0.00  -0.00
  40   1     0.00   0.00  -0.00    -0.00  -0.00   0.00    -0.00   0.00  -0.00
  41   1    -0.00  -0.00   0.00    -0.00   0.00   0.00     0.00   0.00  -0.00
  42   1    -0.00  -0.00  -0.00    -0.00   0.00  -0.00     0.00  -0.00   0.00
  43   8     0.00  -0.00   0.00     0.00   0.01  -0.00    -0.00  -0.00  -0.00
  44   6     0.00   0.00  -0.01     0.00  -0.01  -0.01    -0.00   0.00   0.02
  45   8    -0.00   0.00   0.00    -0.00   0.00   0.01     0.00  -0.00  -0.01
  46   6    -0.00  -0.00   0.00     0.00  -0.00   0.00     0.00   0.00  -0.00
  47   1     0.00   0.00   0.00     0.00   0.00   0.00    -0.00  -0.00  -0.00
  48   1    -0.00  -0.00   0.00    -0.00   0.00   0.00     0.00  -0.00  -0.00
  49   1     0.00   0.00  -0.00     0.00   0.00  -0.00    -0.00  -0.00   0.00
  50   8     0.00   0.00   0.00    -0.01   0.00  -0.01     0.00   0.00   0.00
  51   8    -0.01  -0.00   0.01     0.13   0.08  -0.24    -0.03  -0.02   0.05
  52   6     0.00   0.02  -0.02    -0.02  -0.45   0.66     0.01   0.08  -0.12
  53   8     0.00  -0.01   0.01    -0.09   0.30  -0.34     0.02  -0.06   0.06
  54   6     0.00  -0.00   0.00    -0.01   0.03  -0.04     0.00  -0.01   0.01
  55   1     0.00  -0.00  -0.00    -0.06   0.07   0.03     0.01  -0.01  -0.01
  56   1    -0.00  -0.00   0.00    -0.00   0.02  -0.03    -0.00  -0.00   0.00
  57   1    -0.00   0.00  -0.00     0.06  -0.07   0.00    -0.01   0.01  -0.00
                    136                    137                    138
                        a                      a                      a 
 Frequencies --  1706.6087              2972.4379              2977.6299
 Red. masses --    13.2576                 1.8326                 1.8702
 Frc consts  --     0.0000                 0.0000                 0.0000
 IR Inten    --   406.8217                11.6592                 5.9041
 Raman Activ --     0.0000                 0.0000                 0.0000
 Depolar     --     0.0000                 0.0000                 0.0000
 Atom AN      X      Y      Z        X      Y      Z        X      Y      Z
   1  53    -0.00   0.00   0.01    -0.00  -0.00   0.00    -0.00  -0.00   0.00
   2   6     0.01   0.01  -0.01     0.00  -0.00  -0.00     0.00   0.00  -0.00
   3   6    -0.00  -0.00   0.00    -0.00  -0.00   0.00     0.00   0.00  -0.00
   4   6    -0.01  -0.01   0.00     0.00   0.00  -0.00     0.00   0.00   0.00
   5   6     0.00   0.00  -0.00     0.00   0.00  -0.00    -0.00   0.00   0.00
   6   1    -0.00   0.00   0.00     0.00   0.00  -0.00    -0.00  -0.00   0.00
   7   6     0.00  -0.00  -0.01     0.00   0.00  -0.00     0.00   0.00  -0.00
   8   1     0.01   0.01  -0.00     0.00   0.00   0.00    -0.00  -0.00   0.00
   9   6    -0.00  -0.00   0.01     0.00   0.00   0.00     0.00   0.00   0.00
  10   1    -0.00  -0.00  -0.00     0.00   0.00   0.00     0.00  -0.00  -0.00
  11   1    -0.00   0.00   0.00    -0.00  -0.00   0.00    -0.00  -0.00   0.00
  12   1     0.00   0.00  -0.00    -0.00  -0.00  -0.00    -0.00  -0.00  -0.00
  13   1    -0.02   0.02   0.00    -0.00  -0.00   0.00    -0.00  -0.00  -0.00
  14   8     0.00  -0.00  -0.00    -0.00  -0.00  -0.00    -0.00   0.00   0.00
  15   7     0.00  -0.00  -0.00    -0.00   0.00  -0.00    -0.00  -0.00  -0.00
  16   6     0.00   0.00   0.00     0.00  -0.01   0.01    -0.00   0.00  -0.00
  17   6    -0.00   0.00   0.00     0.00  -0.00   0.00     0.00  -0.00   0.01
  18   6    -0.00  -0.00  -0.00     0.16  -0.13   0.13    -0.06   0.06  -0.04
  19   6    -0.00  -0.00  -0.00    -0.00   0.00   0.00     0.00   0.00   0.00
  20   6     0.00   0.00  -0.00    -0.00   0.01  -0.01     0.00  -0.00   0.00
  21   6    -0.00  -0.00  -0.00     0.01  -0.01   0.01     0.15  -0.05   0.16
  22   6     0.00   0.00   0.00    -0.00   0.00  -0.00    -0.00   0.00  -0.01
  23   6     0.00  -0.00  -0.00     0.00  -0.00  -0.00    -0.00  -0.00  -0.00
  24   6    -0.00   0.00   0.00    -0.00   0.07  -0.11     0.00   0.07  -0.11
  25   1     0.00   0.00   0.00    -0.48   0.36  -0.58     0.15  -0.11   0.18
  26   1     0.00   0.00  -0.00    -0.09   0.10   0.10     0.07  -0.08  -0.06
  27   1     0.01   0.00   0.01     0.00   0.00  -0.00     0.00   0.00   0.00
  28   1    -0.00  -0.00   0.00    -0.00  -0.00  -0.00    -0.01  -0.01  -0.00
  29   1     0.00   0.00  -0.00     0.00  -0.01  -0.01    -0.00   0.00   0.00
  30   1    -0.00   0.00   0.00     0.01  -0.02   0.02    -0.00   0.00  -0.00
  31   1    -0.01  -0.00  -0.00    -0.00  -0.00   0.00     0.00   0.00  -0.00
  32   1    -0.00  -0.00   0.00    -0.00   0.00   0.00     0.00  -0.00  -0.00
  33   1    -0.00   0.00   0.00     0.01   0.01   0.01    -0.08  -0.14  -0.06
  34   1    -0.00   0.00   0.00    -0.04   0.03  -0.05    -0.46   0.33  -0.54
  35   1    -0.00  -0.00  -0.00    -0.00  -0.00   0.00    -0.00  -0.00   0.01
  36   1    -0.00  -0.00   0.00     0.00  -0.00   0.00     0.01  -0.00   0.01
  37   1     0.00  -0.00  -0.00    -0.00  -0.00  -0.00    -0.00  -0.01  -0.00
  38   1     0.00   0.00  -0.00    -0.01   0.00   0.00    -0.00   0.00   0.00
  39   1    -0.00   0.00   0.00     0.00  -0.00  -0.00     0.00   0.00  -0.00
  40   1    -0.00   0.00   0.00     0.00   0.00   0.00     0.00   0.01   0.01
  41   1     0.00  -0.00  -0.00     0.20  -0.12   0.20     0.19  -0.11   0.18
  42   1    -0.00  -0.00  -0.00    -0.17  -0.14   0.21    -0.19  -0.16   0.23
  43   8     0.04  -0.11  -0.07    -0.00   0.00  -0.00     0.00   0.00  -0.00
  44   6    -0.17   0.30   0.73     0.00  -0.00  -0.00    -0.00   0.00   0.00
  45   8     0.11  -0.17  -0.53    -0.00   0.00   0.00     0.00   0.00  -0.00
  46   6     0.01   0.01  -0.06    -0.00   0.00   0.00     0.00  -0.00  -0.00
  47   1    -0.03   0.02  -0.04     0.00   0.00  -0.00    -0.00   0.00   0.00
  48   1     0.01   0.01  -0.03    -0.00  -0.00  -0.00    -0.00  -0.00  -0.00
  49   1     0.00  -0.02   0.07     0.00  -0.00  -0.00     0.00   0.00   0.00
  50   8     0.01  -0.01  -0.01     0.00   0.00  -0.00     0.00   0.00  -0.00
  51   8    -0.00   0.00  -0.01     0.00  -0.00   0.00     0.00  -0.00   0.00
  52   6     0.00  -0.01   0.01     0.00  -0.00   0.00    -0.00  -0.00   0.00
  53   8    -0.00   0.01  -0.01     0.00   0.00  -0.00     0.00   0.00  -0.00
  54   6    -0.00   0.00  -0.00     0.00   0.00  -0.00     0.00   0.00  -0.00
  55   1    -0.00   0.00   0.00     0.00   0.00   0.00     0.00  -0.00   0.00
  56   1     0.00   0.00   0.00    -0.00  -0.00  -0.00     0.00  -0.00  -0.00
  57   1     0.00  -0.00   0.00    -0.00  -0.00   0.00    -0.00  -0.00   0.00
                    139                    140                    141
                        a                      a                      a 
 Frequencies --  2987.1704              2997.1471              2999.1116
 Red. masses --     1.9203                 1.6092                 1.6065
 Frc consts  --     0.0000                 0.0000                 0.0000
 IR Inten    --    49.6888                25.0717                36.0310
 Raman Activ --     0.0000                 0.0000                 0.0000
 Depolar     --     0.0000                 0.0000                 0.0000
 Atom AN      X      Y      Z        X      Y      Z        X      Y      Z
   1  53     0.00   0.00  -0.00     0.00  -0.00   0.00     0.00   0.00  -0.00
   2   6    -0.00  -0.00   0.00     0.00   0.00   0.00    -0.00  -0.00  -0.00
   3   6     0.00   0.00  -0.00    -0.00  -0.00   0.00    -0.00  -0.00  -0.00
   4   6    -0.00  -0.00   0.00     0.00  -0.00  -0.00    -0.00  -0.00  -0.00
   5   6    -0.00   0.00   0.00     0.00  -0.00  -0.00     0.00  -0.00  -0.00
   6   1    -0.00  -0.00   0.00     0.00   0.00  -0.00    -0.00   0.00   0.00
   7   6    -0.00  -0.00   0.00     0.00   0.00   0.00     0.00   0.00  -0.00
   8   1    -0.00  -0.00  -0.00     0.00   0.00   0.00    -0.00   0.00   0.00
   9   6    -0.00  -0.00   0.00    -0.00  -0.00  -0.00    -0.00   0.00   0.00
  10   1     0.00  -0.00  -0.00    -0.00   0.00   0.00    -0.00   0.00   0.00
  11   1     0.00   0.00  -0.00     0.00   0.00  -0.00    -0.00  -0.00   0.00
  12   1    -0.00  -0.00  -0.00     0.00   0.00   0.00    -0.00  -0.00  -0.00
  13   1    -0.00   0.00  -0.00     0.00  -0.00   0.00    -0.00   0.00   0.00
  14   8     0.00  -0.00   0.00    -0.00  -0.00   0.00     0.00   0.00  -0.00
  15   7     0.00  -0.00   0.00     0.00  -0.00  -0.00    -0.00  -0.00  -0.00
  16   6    -0.00   0.00   0.00    -0.00   0.00   0.00    -0.00   0.00   0.00
  17   6    -0.00  -0.00  -0.00    -0.00  -0.00   0.00     0.00   0.01   0.00
  18   6    -0.07   0.07  -0.02    -0.08   0.10   0.15    -0.05   0.06   0.06
  19   6     0.00  -0.00   0.00     0.00  -0.01  -0.01     0.01  -0.00  -0.00
  20   6     0.00  -0.01   0.00     0.00  -0.00  -0.01     0.00  -0.00  -0.00
  21   6    -0.11  -0.00  -0.12    -0.00  -0.07   0.01     0.07   0.19   0.04
  22   6     0.00  -0.00   0.01     0.00   0.01  -0.00    -0.01  -0.02   0.00
  23   6     0.00  -0.00   0.00    -0.00   0.00   0.00    -0.00  -0.01  -0.00
  24   6     0.06   0.11  -0.17     0.06  -0.04   0.08    -0.03   0.03  -0.03
  25   1     0.14  -0.10   0.18    -0.19   0.15  -0.19    -0.04   0.04  -0.04
  26   1     0.14  -0.16  -0.11     0.47  -0.53  -0.33     0.23  -0.26  -0.17
  27   1     0.00   0.00  -0.00    -0.01  -0.01   0.01    -0.00  -0.00   0.00
  28   1    -0.01  -0.01  -0.00     0.01   0.01   0.01    -0.01  -0.01  -0.01
  29   1    -0.00   0.01   0.01    -0.01   0.02   0.01    -0.00   0.01   0.01
  30   1    -0.01   0.01  -0.01     0.01  -0.02   0.01     0.00  -0.00   0.00
  31   1     0.00   0.00  -0.00    -0.01  -0.01   0.01    -0.00  -0.00   0.00
  32   1    -0.00   0.00   0.00    -0.02   0.03   0.02    -0.01   0.02   0.01
  33   1     0.15   0.21   0.12     0.13   0.17   0.11    -0.45  -0.57  -0.37
  34   1     0.25  -0.19   0.29    -0.12   0.07  -0.14     0.19  -0.10   0.22
  35   1     0.01   0.00  -0.01    -0.01  -0.00   0.01     0.01   0.01  -0.02
  36   1    -0.01   0.00  -0.01     0.01  -0.00   0.01    -0.01   0.00  -0.02
  37   1    -0.00  -0.00  -0.00    -0.01  -0.01  -0.00     0.02   0.04   0.02
  38   1    -0.01   0.01   0.01     0.02  -0.01  -0.01    -0.00   0.00   0.00
  39   1     0.00   0.00  -0.00    -0.00  -0.00   0.00     0.01   0.01  -0.01
  40   1    -0.00  -0.01  -0.01    -0.00  -0.00  -0.00     0.00   0.02   0.01
  41   1     0.13  -0.06   0.10    -0.24   0.16  -0.26     0.11  -0.07   0.12
  42   1    -0.38  -0.34   0.50     0.03   0.01  -0.01    -0.00   0.00  -0.01
  43   8     0.00  -0.00   0.00    -0.00  -0.00  -0.00     0.00  -0.00  -0.00
  44   6    -0.00   0.00   0.00     0.00   0.00   0.00    -0.00   0.00   0.00
  45   8     0.00  -0.00  -0.00     0.00  -0.00  -0.00     0.00  -0.00  -0.00
  46   6     0.00  -0.00  -0.00    -0.00  -0.00  -0.00     0.00  -0.00  -0.00
  47   1    -0.00   0.00   0.00    -0.00   0.00   0.00    -0.00   0.00   0.00
  48   1    -0.00  -0.00  -0.00     0.00   0.00   0.00     0.00  -0.00   0.00
  49   1    -0.00   0.00   0.00    -0.00   0.00   0.00    -0.00   0.00   0.00
  50   8    -0.00  -0.00   0.00    -0.00   0.00  -0.00     0.00  -0.00   0.00
  51   8     0.00  -0.00   0.00    -0.00   0.00  -0.00    -0.00  -0.00  -0.00
  52   6    -0.00   0.00  -0.00     0.00  -0.00   0.00    -0.00   0.00  -0.00
  53   8    -0.00  -0.00   0.00    -0.00   0.00  -0.00    -0.00  -0.00   0.00
  54   6    -0.00  -0.00   0.00    -0.00   0.00  -0.00    -0.00  -0.00  -0.00
  55   1    -0.00   0.00  -0.00     0.00  -0.00   0.00    -0.00   0.00  -0.00
  56   1     0.00   0.00   0.00    -0.00  -0.00  -0.00     0.00   0.00   0.00
  57   1     0.00   0.00  -0.00    -0.00  -0.00   0.00     0.00   0.00  -0.00
                    142                    143                    144
                        a                      a                      a 
 Frequencies --  3006.3632              3028.4541              3029.0122
 Red. masses --     1.5920                 1.7614                 1.7383
 Frc consts  --     0.0000                 0.0000                 0.0000
 IR Inten    --    56.9132                 6.2614                 1.9507
 Raman Activ --     0.0000                 0.0000                 0.0000
 Depolar     --     0.0000                 0.0000                 0.0000
 Atom AN      X      Y      Z        X      Y      Z        X      Y      Z
   1  53    -0.00  -0.00   0.00     0.00  -0.00   0.00    -0.00   0.00   0.00
   2   6    -0.00  -0.00  -0.00     0.00   0.00  -0.00     0.00  -0.00   0.00
   3   6    -0.00  -0.00   0.00    -0.00  -0.00   0.00     0.00   0.00  -0.00
   4   6     0.00   0.00   0.00    -0.00   0.00   0.00    -0.00   0.00   0.00
   5   6    -0.00   0.00   0.00    -0.00   0.00   0.00    -0.00   0.00   0.00
   6   1     0.00   0.00  -0.00     0.00   0.00  -0.00    -0.00  -0.00   0.00
   7   6     0.00   0.00  -0.00    -0.00  -0.00   0.00    -0.00  -0.00   0.00
   8   1    -0.00  -0.00  -0.00    -0.00   0.00  -0.00     0.00  -0.00  -0.00
   9   6     0.00   0.00   0.00     0.00   0.00   0.00    -0.00  -0.00  -0.00
  10   1     0.00  -0.00  -0.00     0.00  -0.00  -0.00     0.00  -0.00  -0.00
  11   1    -0.00  -0.00   0.00     0.00   0.00  -0.00     0.00   0.00  -0.00
  12   1    -0.00  -0.00  -0.00    -0.00  -0.00  -0.00     0.00  -0.00  -0.00
  13   1    -0.00  -0.00   0.00     0.00  -0.00   0.00     0.00   0.00  -0.00
  14   8     0.00   0.00  -0.00    -0.00   0.00  -0.00     0.00  -0.00   0.00
  15   7    -0.00   0.00  -0.00    -0.00   0.00  -0.00     0.00  -0.00  -0.00
  16   6     0.00  -0.00   0.00    -0.00  -0.00   0.00     0.00   0.00  -0.00
  17   6     0.00   0.00   0.00     0.00   0.00   0.00     0.00   0.00  -0.00
  18   6     0.06  -0.05  -0.02     0.00  -0.00  -0.00    -0.00   0.00  -0.00
  19   6    -0.01  -0.01  -0.00    -0.00  -0.00   0.00    -0.00  -0.00  -0.00
  20   6    -0.01   0.01   0.00    -0.00   0.00  -0.00     0.00   0.00  -0.00
  21   6     0.06   0.05   0.05     0.00   0.00   0.00     0.00   0.00   0.00
  22   6    -0.01  -0.00  -0.00    -0.00   0.00  -0.00     0.00   0.00  -0.00
  23   6    -0.01   0.00   0.00     0.00   0.00   0.00     0.00  -0.00  -0.00
  24   6     0.19  -0.02   0.04     0.00  -0.00   0.00     0.00   0.00  -0.00
  25   1    -0.02   0.01  -0.03    -0.00   0.00  -0.00     0.00  -0.00   0.00
  26   1    -0.16   0.19   0.12    -0.00   0.00   0.00     0.00  -0.00  -0.00
  27   1     0.01   0.00  -0.01     0.01   0.01  -0.01    -0.00  -0.00   0.00
  28   1     0.04   0.02   0.02    -0.00  -0.00  -0.00     0.00   0.00   0.00
  29   1     0.00  -0.01  -0.00     0.00  -0.00  -0.00    -0.00   0.00   0.00
  30   1     0.01  -0.01   0.01     0.01  -0.01   0.01     0.00  -0.00   0.00
  31   1     0.01   0.01  -0.01     0.00   0.00  -0.00    -0.00  -0.00   0.00
  32   1     0.01  -0.01  -0.01     0.00  -0.00  -0.00     0.00  -0.00  -0.00
  33   1    -0.17  -0.22  -0.14    -0.00  -0.00  -0.00    -0.00  -0.00  -0.00
  34   1    -0.02   0.03  -0.03    -0.00   0.00  -0.00     0.00  -0.00   0.00
  35   1     0.00   0.00  -0.01    -0.00  -0.00   0.00    -0.00  -0.00   0.00
  36   1     0.01  -0.00   0.01     0.00  -0.00   0.00    -0.00   0.00  -0.00
  37   1     0.01   0.02   0.01     0.00   0.00   0.00     0.00   0.00   0.00
  38   1     0.04  -0.02  -0.01     0.00  -0.00  -0.00    -0.00   0.00   0.00
  39   1     0.01   0.01  -0.01    -0.00  -0.00   0.00    -0.00  -0.00   0.00
  40   1    -0.00   0.00   0.00    -0.00  -0.00  -0.00     0.00   0.00   0.00
  41   1    -0.45   0.31  -0.50    -0.00   0.00  -0.00    -0.00   0.00  -0.00
  42   1    -0.22  -0.23   0.34    -0.00  -0.00   0.00    -0.00  -0.00   0.00
  43   8     0.00   0.00  -0.00    -0.00   0.00  -0.00     0.00  -0.00  -0.00
  44   6     0.00  -0.00   0.00     0.01   0.00   0.01     0.00   0.00   0.00
  45   8     0.00   0.00  -0.00     0.00  -0.00  -0.00     0.00  -0.00  -0.00
  46   6    -0.00   0.00  -0.00     0.23   0.06   0.10     0.00   0.00   0.00
  47   1    -0.00  -0.00   0.00    -0.06   0.02   0.09    -0.00   0.00   0.00
  48   1     0.00   0.00   0.00    -0.79  -0.26  -0.48    -0.01  -0.00  -0.01
  49   1     0.00  -0.00  -0.00     0.03   0.03   0.02     0.00   0.00   0.00
  50   8     0.00   0.00  -0.00    -0.00   0.00  -0.00     0.00  -0.00  -0.00
  51   8     0.00  -0.00  -0.00    -0.00   0.00  -0.00     0.00  -0.00  -0.00
  52   6    -0.00   0.00   0.00    -0.00  -0.00   0.00    -0.00   0.01   0.00
  53   8     0.00  -0.00  -0.00    -0.00  -0.00  -0.00     0.00  -0.00   0.00
  54   6     0.00  -0.00  -0.00    -0.00  -0.00  -0.00     0.05   0.21   0.13
  55   1     0.00  -0.00   0.00     0.00  -0.00   0.00     0.00   0.03   0.00
  56   1     0.00   0.00   0.00     0.00   0.01   0.01    -0.18  -0.81  -0.50
  57   1    -0.00  -0.00   0.00     0.00   0.00  -0.00    -0.01   0.01   0.03
                    145                    146                    147
                        a                      a                      a 
 Frequencies --  3037.2163              3038.3417              3039.3441
 Red. masses --     1.9451                 1.9291                 1.9431
 Frc consts  --     0.0000                 0.0000                 0.0000
 IR Inten    --     2.7796                13.8890                29.3469
 Raman Activ --     0.0000                 0.0000                 0.0000
 Depolar     --     0.0000                 0.0000                 0.0000
 Atom AN      X      Y      Z        X      Y      Z        X      Y      Z
   1  53    -0.00  -0.00  -0.00     0.00  -0.00  -0.00    -0.00  -0.00   0.00
   2   6     0.00  -0.00   0.00    -0.00  -0.00  -0.00    -0.00  -0.00  -0.00
   3   6    -0.00  -0.00   0.00    -0.00  -0.00   0.00     0.00   0.00  -0.00
   4   6    -0.00   0.00   0.00     0.00   0.00   0.00    -0.00  -0.00   0.00
   5   6     0.00   0.00  -0.00     0.00   0.00  -0.00    -0.00   0.00   0.00
   6   1     0.00   0.00  -0.00     0.01   0.01  -0.01    -0.00  -0.00   0.00
   7   6     0.00   0.00  -0.00    -0.00  -0.00   0.00     0.00   0.00  -0.00
   8   1    -0.00  -0.00  -0.00    -0.00  -0.00  -0.00     0.00  -0.00  -0.00
   9   6     0.00  -0.00  -0.00    -0.00  -0.00  -0.00     0.00   0.00   0.00
  10   1    -0.00   0.00   0.00    -0.00   0.00   0.00     0.00  -0.00  -0.00
  11   1    -0.00  -0.00   0.00     0.00   0.00  -0.00    -0.00  -0.00   0.00
  12   1     0.00   0.00   0.00     0.00   0.00   0.00    -0.00  -0.00  -0.00
  13   1    -0.00  -0.00  -0.00    -0.00  -0.00  -0.00     0.00  -0.00  -0.00
  14   8     0.00  -0.00  -0.00     0.00   0.00  -0.00    -0.00  -0.00   0.00
  15   7    -0.00   0.00  -0.00     0.00  -0.00   0.00    -0.00   0.00  -0.00
  16   6    -0.00   0.00  -0.00    -0.01   0.00  -0.00     0.00  -0.00   0.00
  17   6     0.00  -0.00   0.01     0.00   0.00  -0.00     0.01   0.00  -0.00
  18   6     0.00  -0.00   0.00    -0.00   0.00  -0.00     0.00  -0.00   0.00
  19   6     0.00  -0.02  -0.02     0.01  -0.08  -0.05    -0.01   0.02   0.01
  20   6    -0.04   0.05  -0.00    -0.16   0.19  -0.01     0.04  -0.05   0.00
  21   6     0.00  -0.00   0.00    -0.00   0.00  -0.00     0.00   0.01   0.00
  22   6     0.09  -0.01   0.26     0.02   0.06  -0.08     0.17   0.22  -0.04
  23   6     0.01  -0.04  -0.04    -0.00  -0.01   0.01    -0.01  -0.05  -0.02
  24   6     0.00  -0.00   0.00    -0.00   0.00  -0.00     0.00   0.00  -0.00
  25   1    -0.00   0.00  -0.00     0.01  -0.01   0.01    -0.00   0.00  -0.00
  26   1    -0.00   0.00   0.00     0.01  -0.01  -0.01    -0.00   0.00   0.00
  27   1    -0.01  -0.01   0.01     0.00  -0.01  -0.01    -0.00   0.00   0.01
  28   1     0.03   0.01   0.01     0.05   0.02   0.02    -0.00   0.00   0.00
  29   1    -0.03   0.07   0.05    -0.09   0.25   0.18     0.03  -0.07  -0.05
  30   1     0.08  -0.10   0.11     0.31  -0.36   0.39    -0.08   0.10  -0.10
  31   1     0.00   0.02  -0.01     0.02   0.06  -0.04    -0.00  -0.01   0.01
  32   1     0.06  -0.10  -0.08     0.25  -0.38  -0.32    -0.06   0.10   0.08
  33   1     0.00  -0.00   0.00    -0.00  -0.00  -0.00    -0.03  -0.03  -0.02
  34   1    -0.01   0.01  -0.02     0.01  -0.01   0.01     0.02  -0.01   0.02
  35   1     0.26   0.19  -0.33    -0.15  -0.11   0.21    -0.28  -0.19   0.42
  36   1    -0.44   0.14  -0.52     0.11  -0.03   0.12    -0.00   0.04  -0.04
  37   1    -0.14  -0.30  -0.07    -0.04  -0.07  -0.04    -0.31  -0.61  -0.24
  38   1    -0.06   0.02   0.01    -0.02   0.01   0.01    -0.02  -0.00   0.00
  39   1    -0.03  -0.04   0.02     0.03   0.03  -0.03     0.04   0.04  -0.04
  40   1     0.04   0.17   0.11    -0.00  -0.00  -0.00     0.03   0.15   0.10
  41   1    -0.01   0.00  -0.01     0.01  -0.01   0.01    -0.00   0.00  -0.01
  42   1     0.00   0.00   0.00     0.00   0.00  -0.00    -0.00  -0.00   0.01
  43   8     0.00   0.00   0.00     0.00  -0.00  -0.00    -0.00   0.00  -0.00
  44   6     0.00  -0.00  -0.00    -0.00   0.00  -0.00     0.00  -0.00   0.00
  45   8    -0.00   0.00   0.00     0.00  -0.00   0.00    -0.00   0.00  -0.00
  46   6    -0.00   0.00   0.00    -0.00  -0.00  -0.00     0.00   0.00   0.00
  47   1     0.00   0.00  -0.00    -0.00  -0.00   0.00    -0.00   0.00   0.00
  48   1    -0.00  -0.00  -0.00     0.01   0.00   0.00    -0.00  -0.00  -0.00
  49   1     0.00  -0.00  -0.00    -0.00   0.00   0.00     0.00  -0.00  -0.00
  50   8     0.00   0.00   0.00    -0.00   0.00   0.00     0.00  -0.00  -0.00
  51   8    -0.00  -0.00   0.00     0.00   0.00   0.00     0.00  -0.00   0.00
  52   6     0.00   0.00  -0.00    -0.00  -0.00   0.00    -0.00   0.00   0.00
  53   8     0.00  -0.00   0.00     0.00   0.00  -0.00     0.00   0.00  -0.00
  54   6     0.00  -0.00   0.00    -0.00  -0.00  -0.00    -0.00  -0.00  -0.00
  55   1    -0.00   0.00  -0.00     0.00  -0.00   0.00     0.00  -0.00   0.00
  56   1     0.00   0.00   0.00     0.00   0.00   0.00     0.00   0.00   0.00
  57   1     0.00   0.00  -0.00     0.00   0.00  -0.00    -0.00  -0.00   0.00
                    148                    149                    150
                        a                      a                      a 
 Frequencies --  3043.3094              3044.2421              3045.6316
 Red. masses --     1.3661                 1.5835                 1.4453
 Frc consts  --     0.0000                 0.0000                 0.0000
 IR Inten    --     6.7060                13.5983                 3.4797
 Raman Activ --     0.0000                 0.0000                 0.0000
 Depolar     --     0.0000                 0.0000                 0.0000
 Atom AN      X      Y      Z        X      Y      Z        X      Y      Z
   1  53    -0.00  -0.00   0.00     0.00   0.00  -0.00    -0.00  -0.00   0.00
   2   6    -0.00  -0.00  -0.00     0.00   0.00  -0.00    -0.00  -0.00  -0.00
   3   6    -0.00  -0.00   0.00    -0.00  -0.00   0.00     0.00   0.00  -0.00
   4   6    -0.00  -0.00   0.00     0.00   0.00   0.00     0.00  -0.00  -0.00
   5   6    -0.00   0.00   0.00     0.00   0.00   0.00    -0.00  -0.00  -0.00
   6   1     0.00   0.00  -0.00     0.01   0.01  -0.01    -0.00  -0.00   0.00
   7   6     0.00   0.00  -0.00    -0.00  -0.00   0.00     0.00   0.00  -0.00
   8   1     0.00  -0.00  -0.00    -0.00  -0.00  -0.00     0.00   0.00   0.00
   9   6     0.00   0.00   0.00    -0.00  -0.00  -0.00    -0.00  -0.00  -0.00
  10   1     0.00  -0.00  -0.00    -0.00   0.00   0.00    -0.00   0.00   0.00
  11   1    -0.00  -0.00   0.00     0.00   0.00  -0.00    -0.00  -0.00   0.00
  12   1    -0.00  -0.00  -0.00     0.00   0.00   0.00     0.00   0.00   0.00
  13   1     0.00   0.00  -0.00    -0.00  -0.00   0.00     0.00   0.00   0.00
  14   8    -0.00   0.00   0.00     0.00   0.00  -0.00    -0.00   0.00  -0.00
  15   7     0.00  -0.00  -0.00    -0.00  -0.00  -0.00     0.00   0.00  -0.00
  16   6    -0.00   0.00   0.00    -0.00   0.00  -0.00     0.00  -0.00   0.00
  17   6     0.00  -0.00   0.00    -0.00   0.00  -0.00     0.00  -0.00   0.00
  18   6    -0.00   0.00  -0.00    -0.00   0.00  -0.01     0.00  -0.00   0.00
  19   6    -0.01   0.04   0.05    -0.04   0.10   0.11     0.00  -0.01  -0.00
  20   6    -0.01   0.01  -0.03    -0.04   0.02  -0.15     0.00  -0.00   0.00
  21   6     0.00  -0.00   0.00    -0.00   0.00  -0.00     0.00  -0.00   0.00
  22   6     0.13  -0.06  -0.01    -0.03   0.02   0.01     0.00  -0.00  -0.00
  23   6    -0.01   0.07   0.04     0.00   0.02  -0.01    -0.00  -0.00   0.00
  24   6     0.00   0.00  -0.00    -0.00   0.00  -0.00     0.00  -0.00   0.00
  25   1     0.00  -0.00   0.00     0.02  -0.02   0.02    -0.00   0.00  -0.00
  26   1    -0.00   0.00   0.00    -0.00   0.00   0.00    -0.00   0.00   0.00
  27   1     0.05   0.03  -0.05     0.09   0.06  -0.10     0.00   0.00  -0.01
  28   1    -0.06  -0.03  -0.02    -0.09  -0.03  -0.03     0.00   0.00   0.00
  29   1     0.05  -0.14  -0.09     0.14  -0.38  -0.26    -0.01   0.02   0.01
  30   1     0.07  -0.09   0.09     0.34  -0.40   0.38    -0.01   0.01  -0.01
  31   1     0.01   0.01  -0.01     0.02   0.02  -0.04     0.00   0.00  -0.00
  32   1    -0.03   0.05   0.03    -0.20   0.30   0.21     0.00  -0.00  -0.00
  33   1     0.01   0.01   0.00    -0.00  -0.00  -0.00    -0.00  -0.00  -0.00
  34   1    -0.01   0.01  -0.01     0.01  -0.00   0.01    -0.00   0.00  -0.00
  35   1    -0.27  -0.22   0.41     0.08   0.06  -0.12    -0.01  -0.00   0.01
  36   1    -0.38   0.12  -0.48     0.10  -0.03   0.13    -0.01   0.00  -0.01
  37   1     0.18   0.32   0.12    -0.07  -0.12  -0.04     0.00   0.00   0.00
  38   1     0.10  -0.04  -0.02     0.04  -0.02  -0.01    -0.00   0.00   0.00
  39   1    -0.01  -0.00   0.01    -0.04  -0.05   0.04     0.00   0.00  -0.00
  40   1    -0.04  -0.20  -0.13    -0.00  -0.01  -0.01    -0.00  -0.00  -0.00
  41   1     0.00   0.00   0.00     0.00  -0.00   0.00    -0.00   0.00  -0.00
  42   1    -0.00  -0.00   0.00    -0.00  -0.00   0.00    -0.00  -0.00   0.00
  43   8    -0.00   0.00  -0.00     0.00  -0.00   0.00     0.00   0.00  -0.00
  44   6     0.00  -0.00   0.00    -0.00   0.00   0.00    -0.00  -0.00   0.01
  45   8     0.00  -0.00  -0.00     0.00  -0.00  -0.00     0.00  -0.00  -0.00
  46   6     0.00  -0.00  -0.00    -0.01  -0.01  -0.00    -0.14  -0.09   0.10
  47   1    -0.01   0.00   0.01     0.02  -0.00  -0.01     0.67  -0.09  -0.51
  48   1     0.00   0.00   0.00     0.01   0.00   0.00    -0.10  -0.03  -0.03
  49   1    -0.00   0.00   0.00    -0.00   0.03   0.01    -0.06   0.45   0.17
  50   8     0.00   0.00   0.00    -0.00   0.00   0.00     0.00   0.00  -0.00
  51   8     0.00  -0.00   0.00    -0.00   0.00  -0.00     0.00   0.00  -0.00
  52   6    -0.00   0.00  -0.00    -0.00   0.00   0.00    -0.00  -0.00   0.00
  53   8     0.00   0.00  -0.00    -0.00  -0.00   0.00     0.00   0.00  -0.00
  54   6     0.00   0.00  -0.00    -0.00   0.00   0.00     0.00   0.00  -0.00
  55   1    -0.00   0.00  -0.00     0.00  -0.00   0.00    -0.00   0.00  -0.00
  56   1     0.00   0.00   0.00    -0.00  -0.00  -0.00     0.00  -0.00  -0.00
  57   1    -0.00  -0.00   0.00     0.00   0.00  -0.00    -0.00  -0.00   0.00
                    151                    152                    153
                        a                      a                      a 
 Frequencies --  3047.8595              3049.1977              3053.4609
 Red. masses --     1.7955                 1.7928                 1.7106
 Frc consts  --     0.0000                 0.0000                 0.0000
 IR Inten    --    72.5840                12.5392                12.0490
 Raman Activ --     0.0000                 0.0000                 0.0000
 Depolar     --     0.0000                 0.0000                 0.0000
 Atom AN      X      Y      Z        X      Y      Z        X      Y      Z
   1  53    -0.00  -0.00  -0.00     0.00  -0.00  -0.00     0.00   0.00  -0.00
   2   6    -0.00  -0.00  -0.00     0.00   0.00   0.00    -0.00  -0.00  -0.00
   3   6    -0.00  -0.00   0.00     0.00   0.00  -0.00    -0.00  -0.00   0.00
   4   6    -0.00   0.00   0.00     0.00  -0.00  -0.00    -0.00   0.00   0.00
   5   6    -0.00   0.00   0.00     0.00  -0.00  -0.00     0.00  -0.00  -0.00
   6   1     0.00   0.00  -0.00    -0.00  -0.00   0.00     0.00   0.00  -0.00
   7   6    -0.00  -0.00   0.00    -0.00  -0.00   0.00     0.00   0.00  -0.00
   8   1     0.00  -0.00  -0.00     0.00   0.00   0.00     0.00  -0.00  -0.00
   9   6     0.00   0.00   0.00    -0.00  -0.00  -0.00    -0.00  -0.00  -0.00
  10   1     0.00  -0.00  -0.00    -0.00   0.00   0.00    -0.00   0.00   0.00
  11   1     0.00   0.00  -0.00     0.00   0.00  -0.00    -0.00  -0.00   0.00
  12   1    -0.00  -0.00  -0.00     0.00   0.00   0.00     0.00   0.00   0.00
  13   1     0.00  -0.00  -0.00     0.00  -0.00   0.00     0.00  -0.00   0.00
  14   8    -0.00   0.00   0.00     0.00   0.00  -0.00    -0.00  -0.00  -0.00
  15   7    -0.00   0.00  -0.00     0.00   0.00  -0.00     0.00  -0.00  -0.00
  16   6     0.00  -0.00  -0.01    -0.00   0.00   0.00     0.00   0.01  -0.00
  17   6    -0.00  -0.01  -0.00    -0.00  -0.01  -0.00    -0.00   0.00   0.00
  18   6     0.01  -0.01  -0.01    -0.00   0.00   0.00    -0.00  -0.00   0.00
  19   6     0.04  -0.08  -0.12    -0.04   0.10   0.08     0.14   0.13  -0.10
  20   6     0.04  -0.05  -0.12    -0.04   0.05   0.07    -0.05  -0.00   0.04
  21   6    -0.00  -0.01  -0.00    -0.00  -0.01  -0.00     0.00   0.00   0.00
  22   6    -0.00  -0.04  -0.03    -0.02  -0.05  -0.04    -0.00   0.01   0.02
  23   6    -0.02  -0.16  -0.04    -0.02  -0.18  -0.09    -0.07  -0.01   0.09
  24   6     0.00  -0.00  -0.00     0.00  -0.00   0.00     0.00   0.00   0.00
  25   1     0.01  -0.01   0.01    -0.00   0.00  -0.00    -0.00   0.00  -0.00
  26   1    -0.03   0.03   0.02     0.02  -0.02  -0.01     0.00  -0.00  -0.00
  27   1    -0.16  -0.10   0.18     0.03   0.03  -0.03    -0.47  -0.24   0.57
  28   1     0.12   0.05   0.04    -0.02   0.01   0.01    -0.11  -0.05  -0.08
  29   1    -0.12   0.33   0.22     0.14  -0.39  -0.27     0.09  -0.18  -0.15
  30   1     0.12  -0.14   0.12    -0.04   0.05  -0.03     0.01  -0.02   0.03
  31   1    -0.02  -0.03   0.02     0.02   0.02  -0.02     0.12   0.09  -0.12
  32   1    -0.24   0.36   0.28     0.16  -0.24  -0.19     0.04  -0.07  -0.05
  33   1     0.02   0.02   0.01     0.02   0.02   0.01    -0.00  -0.00  -0.00
  34   1    -0.00   0.00  -0.00    -0.00  -0.00  -0.00    -0.00   0.00   0.00
  35   1    -0.06  -0.05   0.08    -0.05  -0.04   0.05     0.04   0.03  -0.05
  36   1    -0.03   0.00  -0.04     0.01  -0.01   0.01    -0.01   0.00  -0.01
  37   1     0.10   0.19   0.07     0.11   0.21   0.07    -0.03  -0.05  -0.02
  38   1    -0.15   0.05   0.04    -0.11   0.03   0.02     0.09  -0.05  -0.02
  39   1     0.14   0.15  -0.14     0.08   0.07  -0.09     0.20   0.25  -0.19
  40   1     0.08   0.36   0.25     0.12   0.54   0.37    -0.05  -0.17  -0.10
  41   1    -0.00   0.00  -0.00    -0.01   0.00  -0.01    -0.00   0.00  -0.00
  42   1    -0.00  -0.00   0.00     0.00   0.00  -0.00    -0.00  -0.00   0.00
  43   8    -0.00   0.00  -0.00    -0.00  -0.00   0.00     0.00  -0.00  -0.00
  44   6     0.00  -0.00  -0.00    -0.00   0.00  -0.00    -0.00   0.00   0.00
  45   8    -0.00   0.00   0.00    -0.00  -0.00   0.00    -0.00  -0.00  -0.00
  46   6    -0.00   0.01   0.01    -0.00  -0.00  -0.00     0.00   0.00   0.00
  47   1     0.01   0.00  -0.00     0.00  -0.00  -0.00     0.01  -0.00  -0.01
  48   1    -0.01  -0.00  -0.00    -0.00  -0.00  -0.00    -0.01  -0.00  -0.01
  49   1     0.00  -0.03  -0.01    -0.00   0.01   0.00     0.00  -0.00  -0.00
  50   8     0.00   0.00   0.00    -0.00   0.00  -0.00    -0.00  -0.00   0.00
  51   8     0.00   0.00   0.00    -0.00   0.00   0.00    -0.00  -0.00  -0.00
  52   6    -0.00  -0.00   0.00     0.00  -0.00  -0.00     0.00   0.00  -0.00
  53   8     0.00   0.00  -0.00    -0.00   0.00   0.00    -0.00  -0.00   0.00
  54   6     0.00   0.00  -0.00    -0.00  -0.00  -0.00    -0.00  -0.00   0.00
  55   1    -0.00   0.00  -0.00     0.00  -0.00   0.00     0.00  -0.00   0.00
  56   1     0.00   0.00   0.00     0.00   0.00   0.00    -0.00  -0.00  -0.00
  57   1    -0.00  -0.00   0.00     0.00   0.00  -0.00     0.00   0.00  -0.00
                    154                    155                    156
                        a                      a                      a 
 Frequencies --  3055.3229              3056.1875              3057.5183
 Red. masses --     1.4489                 1.7236                 1.9576
 Frc consts  --     0.0000                 0.0000                 0.0000
 IR Inten    --     2.1308                17.7507                21.9270
 Raman Activ --     0.0000                 0.0000                 0.0000
 Depolar     --     0.0000                 0.0000                 0.0000
 Atom AN      X      Y      Z        X      Y      Z        X      Y      Z
   1  53    -0.00  -0.00   0.00    -0.00  -0.00  -0.00     0.00  -0.00  -0.00
   2   6    -0.00  -0.00   0.00    -0.00  -0.00  -0.00    -0.00  -0.00   0.00
   3   6    -0.00  -0.00   0.00    -0.00  -0.00   0.00    -0.00  -0.00   0.00
   4   6     0.00  -0.00  -0.00     0.00   0.00   0.00     0.00  -0.00  -0.00
   5   6    -0.00  -0.00   0.00    -0.00   0.00   0.00    -0.00   0.00   0.00
   6   1     0.00   0.00  -0.00     0.00   0.00  -0.00     0.00   0.00  -0.00
   7   6     0.00   0.00  -0.00     0.00   0.00  -0.00     0.00   0.00  -0.00
   8   1    -0.00   0.00   0.00     0.00  -0.00  -0.00    -0.00  -0.00   0.00
   9   6     0.00   0.00   0.00     0.00   0.00   0.00     0.00   0.00   0.00
  10   1     0.00  -0.00  -0.00     0.00  -0.00  -0.00     0.00  -0.00  -0.00
  11   1    -0.00  -0.00   0.00    -0.00  -0.00   0.00    -0.00  -0.00   0.00
  12   1    -0.00  -0.00  -0.00    -0.00  -0.00  -0.00    -0.00  -0.00  -0.00
  13   1     0.00   0.00  -0.00     0.00  -0.00  -0.00     0.00  -0.00  -0.00
  14   8     0.00  -0.00  -0.00    -0.00  -0.00   0.00    -0.00   0.00   0.00
  15   7     0.00   0.00   0.00     0.00   0.00  -0.00    -0.00  -0.00  -0.00
  16   6     0.00  -0.00   0.00     0.00   0.00  -0.00     0.00  -0.00  -0.00
  17   6    -0.00  -0.00   0.00     0.00   0.00  -0.01    -0.00  -0.00  -0.00
  18   6     0.00  -0.00   0.00     0.00  -0.00  -0.00     0.00  -0.00  -0.00
  19   6    -0.00  -0.00   0.00     0.07   0.04  -0.08     0.01  -0.00  -0.01
  20   6     0.00  -0.00  -0.00    -0.02  -0.01   0.02    -0.00  -0.01   0.01
  21   6     0.00  -0.00   0.00     0.00   0.00   0.00    -0.00  -0.00  -0.00
  22   6     0.00  -0.00   0.00     0.01   0.00  -0.03    -0.00  -0.00  -0.00
  23   6    -0.00  -0.00   0.00     0.14   0.10  -0.14     0.00  -0.00  -0.01
  24   6    -0.00  -0.00   0.00     0.00   0.00  -0.00     0.00  -0.00   0.00
  25   1    -0.00   0.00  -0.00     0.00  -0.00   0.00    -0.00   0.00  -0.00
  26   1    -0.00   0.00   0.00    -0.00   0.01   0.00    -0.00   0.00   0.00
  27   1     0.01   0.01  -0.01    -0.26  -0.13   0.31    -0.02  -0.01   0.02
  28   1     0.00   0.00   0.00    -0.02  -0.01  -0.02    -0.01  -0.00  -0.01
  29   1    -0.00   0.00   0.00     0.01  -0.01  -0.02    -0.01   0.03   0.02
  30   1    -0.00   0.00  -0.00     0.01  -0.01   0.01    -0.01   0.00  -0.01
  31   1    -0.00  -0.00   0.00     0.08   0.06  -0.08     0.03   0.02  -0.03
  32   1    -0.00   0.00   0.00    -0.00   0.00   0.01    -0.01   0.01   0.01
  33   1     0.00   0.00   0.00    -0.01  -0.01  -0.00     0.00   0.00   0.00
  34   1    -0.00   0.00  -0.00     0.00  -0.00   0.00    -0.00   0.00  -0.00
  35   1     0.00   0.00  -0.00    -0.06  -0.04   0.08    -0.00  -0.00   0.00
  36   1    -0.00   0.00  -0.00     0.02  -0.01   0.02    -0.00   0.00  -0.00
  37   1     0.00   0.00   0.00     0.02   0.04   0.01     0.00   0.00   0.00
  38   1     0.00  -0.00  -0.00    -0.09   0.07   0.01     0.00  -0.00  -0.00
  39   1     0.02   0.02  -0.01    -0.46  -0.54   0.43    -0.01  -0.02   0.01
  40   1    -0.00  -0.00  -0.00     0.05   0.13   0.06     0.00   0.02   0.01
  41   1     0.00  -0.00   0.00    -0.01   0.01  -0.01    -0.00   0.00  -0.00
  42   1     0.00   0.00  -0.00    -0.01  -0.01   0.01    -0.00  -0.00   0.00
  43   8     0.00   0.00   0.00     0.00  -0.00  -0.00    -0.00   0.00   0.00
  44   6    -0.00  -0.00  -0.00    -0.00   0.00   0.00     0.00  -0.01  -0.01
  45   8     0.00   0.00   0.00    -0.00  -0.00  -0.00    -0.00   0.00   0.00
  46   6    -0.00  -0.00  -0.00    -0.00   0.01   0.01     0.10  -0.23  -0.16
  47   1    -0.00  -0.00   0.00     0.02  -0.00  -0.02    -0.37   0.02   0.27
  48   1     0.00   0.00   0.00    -0.01  -0.00  -0.00     0.08  -0.01   0.02
  49   1    -0.00   0.01   0.00     0.00  -0.03  -0.01    -0.06   0.79   0.27
  50   8     0.00   0.00  -0.00    -0.00  -0.00   0.00    -0.00   0.00   0.00
  51   8     0.00   0.00  -0.00     0.00  -0.00   0.00     0.00  -0.00   0.00
  52   6    -0.01  -0.00  -0.00    -0.00  -0.00  -0.00    -0.00   0.00  -0.00
  53   8     0.00  -0.00   0.00     0.00   0.00  -0.00     0.00  -0.00   0.00
  54   6    -0.18  -0.06  -0.04    -0.01  -0.00  -0.00     0.00  -0.00   0.00
  55   1     0.19  -0.16   0.57     0.01  -0.01   0.02    -0.00   0.00  -0.01
  56   1    -0.03  -0.04  -0.02    -0.00  -0.00  -0.00     0.00   0.00   0.00
  57   1     0.49   0.42  -0.39     0.02   0.01  -0.01    -0.00  -0.00   0.00
                    157                    158                    159
                        a                      a                      a 
 Frequencies --  3062.8257              3065.0283              3068.2613
 Red. masses --     1.5087                 1.7213                 1.9863
 Frc consts  --     0.0000                 0.0000                 0.0000
 IR Inten    --     0.0966                 6.7890                 6.8455
 Raman Activ --     0.0000                 0.0000                 0.0000
 Depolar     --     0.0000                 0.0000                 0.0000
 Atom AN      X      Y      Z        X      Y      Z        X      Y      Z
   1  53    -0.00  -0.00   0.00    -0.00  -0.00   0.00     0.00   0.00  -0.00
   2   6     0.00  -0.00  -0.00     0.00   0.00  -0.00    -0.00  -0.00   0.00
   3   6     0.00   0.00  -0.00     0.00   0.00  -0.00    -0.00  -0.00   0.00
   4   6     0.00  -0.00  -0.00     0.00  -0.00  -0.00    -0.00   0.00   0.00
   5   6     0.00  -0.00  -0.00     0.00  -0.00  -0.00    -0.00   0.00   0.00
   6   1    -0.00  -0.00   0.00    -0.00  -0.00   0.00     0.00   0.00  -0.00
   7   6     0.00   0.00  -0.00     0.00   0.00  -0.00    -0.00  -0.00   0.00
   8   1    -0.00   0.00   0.00    -0.00   0.00   0.00     0.00  -0.00  -0.00
   9   6     0.00   0.00  -0.00     0.00   0.00   0.00     0.00   0.00   0.00
  10   1    -0.00   0.00   0.00    -0.00   0.00   0.01     0.00  -0.00  -0.00
  11   1    -0.00  -0.00   0.00    -0.00  -0.00   0.00     0.00   0.00  -0.00
  12   1     0.00  -0.00  -0.00    -0.00  -0.00  -0.00    -0.00  -0.00  -0.00
  13   1    -0.00   0.00  -0.00    -0.00   0.00  -0.00    -0.00   0.00   0.00
  14   8    -0.00  -0.00   0.00    -0.00  -0.00  -0.00     0.00  -0.00   0.00
  15   7     0.00  -0.00  -0.00     0.00   0.00  -0.00     0.00  -0.00   0.00
  16   6    -0.00   0.00  -0.00     0.01   0.01  -0.00    -0.00   0.00   0.00
  17   6     0.00  -0.00   0.00    -0.00   0.00  -0.00    -0.00   0.00   0.00
  18   6    -0.00   0.00   0.00    -0.00  -0.00  -0.00    -0.00   0.00  -0.00
  19   6    -0.12  -0.01  -0.05     0.06   0.04  -0.01     0.00   0.00   0.00
  20   6     0.03   0.04  -0.04     0.13   0.13  -0.15    -0.00  -0.00   0.00
  21   6     0.00   0.00   0.00    -0.00   0.00  -0.00    -0.00   0.00  -0.00
  22   6     0.01   0.00   0.00    -0.00   0.00  -0.00    -0.00  -0.00   0.00
  23   6     0.15  -0.02   0.01    -0.05   0.02  -0.00     0.00  -0.00   0.00
  24   6     0.00  -0.00   0.00     0.00   0.00  -0.00    -0.00   0.00  -0.00
  25   1     0.00  -0.00   0.00     0.01  -0.01   0.01     0.00  -0.00   0.00
  26   1     0.01  -0.01  -0.01    -0.01   0.01   0.00     0.00  -0.00  -0.00
  27   1    -0.08  -0.04   0.07    -0.11  -0.05   0.14    -0.00  -0.00   0.00
  28   1     0.46   0.26   0.23    -0.11  -0.06  -0.06    -0.00  -0.00  -0.00
  29   1     0.05  -0.19  -0.13     0.02  -0.03  -0.02     0.00  -0.00  -0.00
  30   1     0.02  -0.01   0.01     0.05  -0.03   0.02     0.00  -0.00   0.00
  31   1    -0.15  -0.11   0.15    -0.57  -0.41   0.57     0.00   0.00  -0.00
  32   1     0.02  -0.02  -0.02     0.05  -0.04  -0.06     0.00  -0.00  -0.00
  33   1    -0.01  -0.01  -0.01    -0.00   0.00  -0.00    -0.00  -0.00  -0.00
  34   1    -0.00   0.00  -0.00     0.00  -0.00   0.00     0.00  -0.00   0.00
  35   1    -0.01  -0.01   0.02     0.00   0.00  -0.00     0.00   0.00  -0.00
  36   1    -0.01   0.00  -0.02     0.00  -0.00   0.01    -0.00   0.00  -0.00
  37   1    -0.01  -0.01  -0.00    -0.00  -0.01  -0.00    -0.00  -0.00  -0.00
  38   1    -0.55   0.28   0.16     0.20  -0.10  -0.06    -0.00   0.00   0.00
  39   1     0.05   0.03  -0.03    -0.04  -0.04   0.03     0.00   0.00  -0.00
  40   1    -0.03  -0.23  -0.16     0.00   0.05   0.03    -0.00  -0.00  -0.00
  41   1    -0.00   0.00  -0.00     0.00  -0.00   0.00     0.00  -0.00   0.00
  42   1    -0.00  -0.00   0.00    -0.00  -0.00   0.01    -0.00  -0.00   0.00
  43   8    -0.00   0.00   0.00    -0.00   0.00   0.00    -0.00  -0.00   0.00
  44   6     0.00  -0.00  -0.00     0.00  -0.00  -0.00     0.00  -0.00  -0.00
  45   8     0.00   0.00   0.00     0.00   0.00  -0.00    -0.00   0.00   0.00
  46   6     0.00  -0.01  -0.00     0.00  -0.01  -0.00     0.00  -0.00  -0.00
  47   1    -0.01   0.00   0.01    -0.01   0.00   0.01    -0.00   0.00   0.00
  48   1     0.00  -0.00  -0.00     0.00  -0.00  -0.00     0.00   0.00   0.00
  49   1    -0.00   0.03   0.01    -0.00   0.04   0.01    -0.00   0.00   0.00
  50   8     0.00   0.00   0.00     0.00  -0.00  -0.00     0.00  -0.00   0.00
  51   8     0.00   0.00   0.00     0.00   0.00   0.00    -0.00  -0.00   0.00
  52   6    -0.00  -0.00   0.00     0.00  -0.00   0.00     0.00   0.01  -0.01
  53   8     0.00   0.00  -0.00     0.00   0.00  -0.00    -0.00  -0.00   0.00
  54   6     0.00  -0.00  -0.00    -0.00   0.00  -0.00     0.04   0.14  -0.26
  55   1    -0.00   0.00  -0.00     0.00  -0.00   0.00     0.26  -0.17   0.67
  56   1     0.00   0.00   0.00     0.00   0.00   0.00     0.01   0.02  -0.03
  57   1    -0.00  -0.00   0.00    -0.00  -0.00   0.00    -0.41  -0.34   0.28
                    160                    161                    162
                        a                      a                      a 
 Frequencies --  3073.8988              3075.8735              3083.7353
 Red. masses --     1.5947                 1.7582                 1.8226
 Frc consts  --     0.0000                 0.0000                 0.0000
 IR Inten    --    51.9051                 2.0300                36.5895
 Raman Activ --     0.0000                 0.0000                 0.0000
 Depolar     --     0.0000                 0.0000                 0.0000
 Atom AN      X      Y      Z        X      Y      Z        X      Y      Z
   1  53    -0.00   0.00  -0.00     0.00   0.00   0.00     0.00   0.00  -0.00
   2   6     0.00   0.00   0.00     0.00   0.00   0.00    -0.00  -0.00   0.00
   3   6    -0.00  -0.00   0.00     0.00   0.00  -0.00    -0.01  -0.01   0.01
   4   6     0.00   0.00  -0.00     0.00   0.00   0.01    -0.00   0.00   0.02
   5   6    -0.00   0.00   0.00    -0.01   0.01   0.12     0.01  -0.02  -0.19
   6   1     0.00   0.00  -0.00    -0.02  -0.02   0.02     0.05   0.04  -0.04
   7   6    -0.00  -0.00   0.00     0.08   0.07  -0.06     0.13   0.11  -0.10
   8   1     0.00   0.00   0.00     0.00  -0.01  -0.04     0.01  -0.01  -0.09
   9   6    -0.00  -0.00  -0.00    -0.11  -0.13  -0.10     0.00   0.00   0.00
  10   1     0.00  -0.00  -0.00     0.03  -0.03  -0.44    -0.04   0.05   0.67
  11   1     0.00   0.00  -0.00    -0.29  -0.26   0.23    -0.44  -0.39   0.34
  12   1     0.00   0.00   0.00     0.42   0.48   0.35    -0.01  -0.01  -0.01
  13   1     0.00  -0.00   0.00    -0.00   0.00   0.00    -0.00  -0.00  -0.00
  14   8    -0.00   0.00   0.00    -0.00  -0.00   0.00     0.00   0.00   0.00
  15   7     0.00   0.00   0.00    -0.00   0.00  -0.00    -0.00  -0.00   0.00
  16   6    -0.01  -0.00  -0.00     0.00   0.00   0.00    -0.00  -0.00  -0.00
  17   6    -0.00   0.00  -0.00     0.00  -0.00   0.00    -0.00  -0.00  -0.00
  18   6    -0.00   0.00  -0.00     0.00  -0.00   0.00    -0.00   0.00  -0.00
  19   6    -0.15  -0.06  -0.07     0.00   0.00   0.00    -0.00  -0.00  -0.00
  20   6    -0.01  -0.01   0.01     0.00   0.00  -0.00    -0.00  -0.00   0.00
  21   6    -0.00   0.00  -0.00     0.00  -0.00   0.00    -0.00   0.00  -0.00
  22   6    -0.00  -0.00   0.00    -0.00  -0.00   0.00    -0.00   0.00  -0.00
  23   6    -0.13   0.06   0.02     0.00  -0.00  -0.00    -0.00  -0.00   0.00
  24   6    -0.01   0.01  -0.01     0.00  -0.00   0.00    -0.00   0.00  -0.00
  25   1     0.01  -0.01   0.01    -0.00   0.00  -0.00     0.00  -0.00   0.00
  26   1     0.01  -0.01  -0.01     0.00  -0.00  -0.00    -0.00   0.00   0.00
  27   1    -0.06  -0.03   0.04    -0.00  -0.00   0.00     0.00   0.00  -0.00
  28   1     0.58   0.32   0.29    -0.00  -0.00  -0.00     0.00   0.00   0.00
  29   1     0.00  -0.08  -0.06     0.00  -0.00  -0.00    -0.00   0.00   0.00
  30   1     0.00  -0.00   0.00     0.00  -0.00   0.00    -0.00   0.00  -0.00
  31   1     0.05   0.03  -0.05    -0.01  -0.00   0.01     0.01   0.00  -0.01
  32   1    -0.01   0.01   0.01     0.00  -0.00  -0.00    -0.00   0.00   0.00
  33   1     0.00   0.01   0.00    -0.00  -0.00  -0.00     0.00   0.00   0.00
  34   1     0.01  -0.01   0.01    -0.00   0.00  -0.00     0.00  -0.00   0.00
  35   1     0.01   0.01  -0.01     0.00   0.00  -0.00    -0.00  -0.00   0.00
  36   1     0.01  -0.00   0.01     0.00  -0.00   0.00     0.00  -0.00   0.00
  37   1    -0.00  -0.00  -0.00     0.00   0.00   0.00    -0.00   0.00  -0.00
  38   1     0.54  -0.27  -0.15    -0.00   0.00   0.00    -0.00   0.00   0.00
  39   1    -0.06  -0.03   0.04     0.00   0.00  -0.00     0.00   0.00  -0.00
  40   1    -0.00   0.08   0.05     0.00  -0.00  -0.00     0.00   0.00   0.00
  41   1     0.04  -0.03   0.05    -0.00   0.00  -0.00     0.00  -0.00   0.00
  42   1     0.00   0.00  -0.01     0.00  -0.00  -0.00    -0.00  -0.00   0.00
  43   8     0.00  -0.00   0.00     0.00  -0.00   0.00     0.00  -0.00   0.00
  44   6    -0.00   0.00  -0.00     0.00   0.00  -0.00     0.00   0.00  -0.00
  45   8    -0.00  -0.00   0.00     0.00  -0.00   0.00    -0.00  -0.00   0.00
  46   6    -0.00   0.00   0.00     0.00   0.00   0.00     0.00   0.00  -0.00
  47   1     0.00  -0.00  -0.00    -0.00   0.00   0.00    -0.00   0.00   0.00
  48   1    -0.00  -0.00  -0.00    -0.00  -0.00  -0.00    -0.00  -0.00  -0.00
  49   1    -0.00  -0.00   0.00     0.00  -0.00  -0.00     0.00  -0.00  -0.00
  50   8    -0.00  -0.00   0.00     0.00   0.00  -0.00    -0.00  -0.00   0.00
  51   8    -0.00  -0.00   0.00    -0.00   0.00   0.00    -0.00  -0.00   0.00
  52   6     0.00  -0.00  -0.00     0.00   0.00  -0.00     0.00   0.00  -0.00
  53   8    -0.00   0.00   0.00    -0.00   0.00   0.00    -0.00   0.00   0.00
  54   6    -0.00   0.00  -0.00     0.00   0.00  -0.00     0.00   0.00  -0.00
  55   1     0.00  -0.00   0.00     0.00  -0.00   0.00     0.00  -0.00   0.00
  56   1     0.00   0.00  -0.00    -0.00  -0.00  -0.00    -0.00  -0.00  -0.00
  57   1    -0.00  -0.00   0.00    -0.00  -0.00   0.00    -0.00  -0.00   0.00
                    163                    164                    165
                        a                      a                      a 
 Frequencies --  3092.0920              3120.9226              3126.7373
 Red. masses --     1.8972                 1.8582                 1.8483
 Frc consts  --     0.0000                 0.0000                 0.0000
 IR Inten    --    59.2014                 1.2262                 2.6742
 Raman Activ --     0.0000                 0.0000                 0.0000
 Depolar     --     0.0000                 0.0000                 0.0000
 Atom AN      X      Y      Z        X      Y      Z        X      Y      Z
   1  53     0.00   0.00   0.00     0.00   0.00  -0.00     0.00  -0.00  -0.00
   2   6    -0.00  -0.00  -0.00    -0.01  -0.01  -0.00     0.00   0.00   0.00
   3   6    -0.01  -0.01   0.01    -0.01  -0.00   0.01     0.17   0.16  -0.13
   4   6     0.00  -0.00  -0.02     0.02  -0.03  -0.27    -0.00  -0.00  -0.01
   5   6     0.01  -0.01  -0.15    -0.00  -0.00   0.00     0.00  -0.00  -0.04
   6   1     0.04   0.04  -0.03     0.02   0.02  -0.02    -0.60  -0.57   0.47
   7   6    -0.09  -0.08   0.08     0.03   0.03  -0.02     0.00   0.00  -0.00
   8   1    -0.01   0.01   0.08    -0.06   0.11   0.94    -0.00   0.00   0.03
   9   6    -0.11  -0.13  -0.09     0.00   0.00   0.01    -0.00  -0.00  -0.00
  10   1    -0.04   0.04   0.51     0.00  -0.00  -0.00    -0.01   0.01   0.10
  11   1     0.32   0.28  -0.25    -0.08  -0.07   0.06    -0.00  -0.00   0.00
  12   1     0.36   0.42   0.31    -0.01  -0.02  -0.01     0.01   0.01   0.01
  13   1     0.00  -0.00   0.00    -0.00  -0.00  -0.00     0.00  -0.00   0.00
  14   8    -0.00   0.00  -0.00    -0.00   0.00  -0.00    -0.00   0.00  -0.00
  15   7    -0.00   0.00  -0.00    -0.00  -0.00   0.00    -0.00   0.00  -0.00
  16   6     0.00  -0.00  -0.00    -0.00  -0.00  -0.00    -0.00  -0.00  -0.00
  17   6     0.00   0.00   0.00     0.00  -0.00  -0.00     0.00  -0.00   0.00
  18   6     0.00  -0.00  -0.00    -0.00  -0.00  -0.00     0.00  -0.00  -0.00
  19   6     0.00  -0.00  -0.00    -0.00  -0.00   0.00    -0.00  -0.00  -0.00
  20   6     0.00  -0.00   0.00    -0.00  -0.00   0.00    -0.00   0.00  -0.00
  21   6     0.00   0.00   0.00    -0.00  -0.00  -0.00     0.00   0.00   0.00
  22   6     0.00   0.00  -0.00     0.00   0.00   0.00     0.00  -0.00   0.00
  23   6     0.00   0.00  -0.00     0.00  -0.00   0.00     0.00  -0.00   0.00
  24   6     0.00   0.00  -0.00    -0.00   0.00  -0.00     0.00  -0.00   0.00
  25   1    -0.00   0.00  -0.00     0.00  -0.00   0.00     0.00  -0.00   0.00
  26   1    -0.00   0.00   0.00    -0.00   0.00   0.00    -0.00   0.00   0.00
  27   1     0.00  -0.00  -0.00     0.00   0.00  -0.00     0.00   0.00  -0.00
  28   1    -0.00  -0.00  -0.00    -0.00  -0.00   0.00     0.00   0.00   0.00
  29   1    -0.00   0.00   0.00    -0.00   0.00   0.00    -0.00   0.00   0.00
  30   1    -0.00   0.00  -0.00     0.00  -0.00   0.00     0.01  -0.02   0.02
  31   1     0.00   0.00  -0.00     0.00   0.00  -0.00     0.01   0.01  -0.01
  32   1    -0.00   0.00   0.00    -0.00   0.00   0.00    -0.00   0.00   0.00
  33   1    -0.00  -0.00  -0.00     0.00   0.00   0.00    -0.00  -0.00  -0.00
  34   1    -0.00   0.00  -0.00     0.00  -0.00   0.00     0.00   0.00  -0.00
  35   1    -0.00  -0.00   0.00    -0.00  -0.00   0.00     0.00   0.00  -0.00
  36   1    -0.00   0.00  -0.00    -0.00   0.00  -0.00    -0.00   0.00  -0.00
  37   1    -0.00  -0.00  -0.00    -0.00  -0.00   0.00     0.00   0.00   0.00
  38   1    -0.00   0.00   0.00    -0.00   0.00   0.00    -0.00   0.00   0.00
  39   1    -0.00  -0.00   0.00     0.00   0.00  -0.00     0.00   0.00  -0.00
  40   1    -0.00  -0.00  -0.00    -0.00  -0.00  -0.00     0.00  -0.00  -0.00
  41   1    -0.00   0.00  -0.00     0.00  -0.00   0.00    -0.00   0.00  -0.00
  42   1    -0.00  -0.00   0.00    -0.00  -0.00   0.00    -0.00  -0.00   0.00
  43   8    -0.00   0.00  -0.00    -0.00  -0.00  -0.00    -0.00   0.00   0.00
  44   6     0.00  -0.00   0.00     0.00   0.00   0.00     0.00  -0.00  -0.00
  45   8    -0.00   0.00  -0.00     0.00  -0.00  -0.00    -0.00  -0.00   0.00
  46   6    -0.00  -0.00  -0.00     0.00   0.00   0.00     0.00   0.00  -0.00
  47   1    -0.00  -0.00  -0.00    -0.00   0.00   0.00    -0.00   0.00   0.00
  48   1     0.00   0.00   0.00    -0.00  -0.00  -0.00    -0.00  -0.00  -0.00
  49   1    -0.00   0.00   0.00     0.00  -0.00  -0.00     0.00  -0.00  -0.00
  50   8    -0.00  -0.00   0.00    -0.00  -0.00   0.00     0.00   0.00   0.00
  51   8     0.00  -0.00   0.00    -0.00  -0.00   0.00     0.00   0.00   0.00
  52   6    -0.00   0.00   0.00     0.00   0.00  -0.00     0.00   0.00  -0.00
  53   8     0.00  -0.00  -0.00    -0.00  -0.00   0.00    -0.00  -0.00   0.00
  54   6    -0.00  -0.00   0.00     0.00   0.00  -0.00    -0.00   0.00  -0.00
  55   1     0.00  -0.00   0.00    -0.00   0.00  -0.00     0.00  -0.00   0.00
  56   1     0.00   0.00   0.00    -0.00  -0.00  -0.00    -0.00   0.00   0.00
  57   1     0.00   0.00  -0.00    -0.00  -0.00   0.00    -0.00  -0.00   0.00
