57
pr1.tempo_ts3 mechanism_001 GT native target
I  0.702300  -0.471180  -0.780410
C  1.842430  0.680500  0.631350
C  1.965320  0.129450  1.893520
C  2.484980  1.830830  0.212980
C  2.754860  0.817760  2.812590
H  1.486590  -0.812310  2.132610
C  3.280400  2.489420  1.147710
H  2.368200  2.201820  -0.795490
C  3.404550  1.991470  2.441970
H  2.870500  0.417960  3.813970
H  3.794020  3.399230  0.857200
H  4.021670  2.516640  3.163710
H  -1.163030  -1.126450  0.657560
O  -1.272970  0.343540  -0.646260
N  -2.045900  -0.360400  0.261440
C  -2.489900  0.575860  1.369880
C  -3.088400  -1.168410  -0.487870
C  -3.363480  -0.242610  2.328710
C  -3.195130  1.815330  0.817300
C  -1.220380  1.037070  2.083990
C  -3.927670  -1.909300  0.561230
C  -2.337370  -2.185520  -1.354300
C  -3.944300  -0.291780  -1.407690
C  -4.500090  -0.985130  1.632650
H  -2.723960  -0.971940  2.844450
H  -3.746490  0.440890  3.093540
H  -2.575040  2.271940  0.041500
H  -4.193920  1.616290  0.429830
H  -3.295340  2.535880  1.633820
H  -0.631820  0.182540  2.428290
H  -0.616630  1.667060  1.423440
H  -1.505440  1.626910  2.959430
H  -4.723380  -2.445320  0.032850
H  -3.295260  -2.667940  1.041960
H  -1.806470  -1.684300  -2.169510
H  -1.630770  -2.777120  -0.767080
H  -3.066010  -2.863710  -1.805360
H  -4.754330  0.216950  -0.885850
H  -3.318750  0.451790  -1.906260
H  -4.396840  -0.929970  -2.171530
H  -5.208460  -0.275240  1.191580
H  -5.064310  -1.571890  2.363280
O  0.669750  1.412840  -2.042130
C  0.035770  2.509510  -1.701550
O  -0.132600  2.902010  -0.556160
C  -0.497040  3.282080  -2.894960
H  0.278720  3.384630  -3.655810
H  -1.318340  2.712420  -3.339020
H  -0.857990  4.259620  -2.577610
O  0.020440  -1.598750  0.577160
O  2.937280  -2.361230  0.975370
C  3.243070  -2.239300  -0.191260
O  2.547890  -1.568350  -1.098900
C  4.492580  -2.857460  -0.787720
H  5.024860  -3.417640  -0.020370
H  4.217420  -3.514170  -1.615500
H  5.130630  -2.068450  -1.191810
