 Entering Gaussian System
 *********************************************
 Gaussian 98:
 frequency output generated by the xtb code
 *********************************************
                         Standard orientation:
 --------------------------------------------------------------------
  Center     Atomic     Atomic              Coordinates (Angstroms)
  Number     Number      Type              X           Y           Z
 --------------------------------------------------------------------
    1         53             0        0.702295   -0.471185   -0.780412
    2          6             0        1.842436    0.680492    0.631342
    3          6             0        1.965327    0.129443    1.893513
    4          6             0        2.484991    1.830818    0.212968
    5          6             0        2.754874    0.817751    2.812579
    6          1             0        1.486593   -0.812314    2.132606
    7          6             0        3.280417    2.489405    1.147694
    8          1             0        2.368209    2.201806   -0.795502
    9          6             0        3.404569    1.991457    2.441955
   10          1             0        2.870516    0.417952    3.813960
   11          1             0        3.794041    3.399212    0.857181
   12          1             0        4.021695    2.516625    3.163692
   13          1             0       -1.163034   -1.126443    0.657566
   14          8             0       -1.272971    0.343546   -0.646256
   15          7             0       -2.045901   -0.360389    0.261448
   16          6             0       -2.489892    0.575875    1.369888
   17          6             0       -3.088408   -1.168395   -0.487857
   18          6             0       -3.363473   -0.242588    2.328722
   19          6             0       -3.195118    1.815348    0.817308
   20          6             0       -1.220367    1.037080    2.083993
   21          6             0       -3.927678   -1.909279    0.561247
   22          6             0       -2.337386   -2.185510   -1.354288
   23          6             0       -3.944307   -0.291762   -1.407676
   24          6             0       -4.500090   -0.985104    1.632668
   25          1             0       -2.723955   -0.971921    2.844461
   26          1             0       -3.746477    0.440915    3.093553
   27          1             0       -2.575028    2.271954    0.041505
   28          1             0       -4.193910    1.616313    0.429842
   29          1             0       -3.295321    2.535900    1.633827
   30          1             0       -0.631811    0.182548    2.428292
   31          1             0       -0.616616    1.667066    1.423439
   32          1             0       -1.505421    1.626923    2.959433
   33          1             0       -4.723393   -2.445295    0.032871
   34          1             0       -3.295271   -2.667921    1.041976
   35          1             0       -1.806487   -1.684294   -2.169501
   36          1             0       -1.630787   -2.777113   -0.767070
   37          1             0       -3.066032   -2.863697   -1.805344
   38          1             0       -4.754332    0.216973   -0.885834
   39          1             0       -3.318755    0.451804   -1.906249
   40          1             0       -4.396853   -0.929951   -2.171513
   41          1             0       -5.208458   -0.275211    1.191599
   42          1             0       -5.064310   -1.571860    2.363301
   43          8             0        0.669750    1.412833   -2.042135
   44          6             0        0.035777    2.509507   -1.701555
   45          8             0       -0.132587    2.902010   -0.556165
   46          6             0       -0.497033    3.282078   -2.894964
   47          1             0        0.278725    3.384622   -3.655817
   48          1             0       -1.318338    2.712421   -3.339020
   49          1             0       -0.857977    4.259620   -2.577615
   50          8             0        0.020434   -1.598749    0.577163
   51          8             0        2.937271   -2.361244    0.975364
   52          6             0        3.243058   -2.239318   -0.191267
   53          8             0        2.547878   -1.568365   -1.098906
   54          6             0        4.492563   -2.857485   -0.787731
   55          1             0        5.024843   -3.417667   -0.020382
   56          1             0        4.217396   -3.514195   -1.615509
   57          1             0        5.130615   -2.068479   -1.191824
 --------------------------------------------------------------------
     1 basis functions        1 primitive gaussians
     1 alpha electrons        1 beta electrons

 Harmonic frequencies (cm**-1), IR intensities (km*mol⁻¹),
 Raman scattering activities (A**4/amu), Raman depolarization ratios,
 reduced masses (AMU), force constants (mDyne/A) and normal coordinates:
                      1                      2                      3
                        a                      a                      a 
 Frequencies --  -824.1619                29.2083                53.1565
 Red. masses --     5.5604                17.6466                13.7139
 Frc consts  --     0.0000                 0.0000                 0.0000
 IR Inten    --  2033.0312                 0.2458                 0.8682
 Raman Activ --     0.0000                 0.0000                 0.0000
 Depolar     --     0.0000                 0.0000                 0.0000
 Atom AN      X      Y      Z        X      Y      Z        X      Y      Z
   1  53    -0.05   0.11  -0.08     0.10   0.18  -0.06    -0.12   0.02   0.09
   2   6    -0.00  -0.01   0.01     0.06   0.07  -0.06     0.05  -0.01  -0.04
   3   6     0.00  -0.01   0.01     0.09   0.08  -0.07     0.07   0.02  -0.03
   4   6    -0.00  -0.00   0.00     0.03   0.08  -0.08     0.16  -0.10  -0.12
   5   6     0.00   0.00   0.00     0.10   0.10  -0.08     0.21  -0.04  -0.11
   6   1     0.01  -0.00   0.02     0.03   0.02  -0.02    -0.01   0.03   0.01
   7   6    -0.00  -0.00   0.00     0.04   0.10  -0.10     0.30  -0.16  -0.20
   8   1     0.00  -0.00   0.00    -0.00   0.02  -0.02     0.04  -0.04  -0.04
   9   6     0.00   0.00   0.00     0.07   0.10  -0.10     0.33  -0.13  -0.19
  10   1    -0.00  -0.00  -0.00     0.03   0.03  -0.02     0.07  -0.00  -0.03
  11   1    -0.00  -0.00  -0.00     0.01   0.03  -0.03     0.11  -0.07  -0.08
  12   1    -0.00  -0.00   0.00     0.02   0.03  -0.03     0.13  -0.05  -0.07
  13   1     0.84  -0.37  -0.02     0.01   0.00  -0.01    -0.02  -0.00  -0.00
  14   8     0.13  -0.04  -0.01     0.01   0.00  -0.04    -0.07  -0.04  -0.05
  15   7    -0.03  -0.04   0.03     0.02  -0.02  -0.05    -0.08  -0.03  -0.04
  16   6     0.01  -0.04  -0.06     0.01  -0.05  -0.03    -0.09  -0.01  -0.06
  17   6     0.04   0.04   0.03     0.04  -0.04  -0.05    -0.06  -0.04  -0.04
  18   6     0.00   0.00  -0.01     0.04  -0.08  -0.03    -0.11   0.01  -0.06
  19   6    -0.01   0.01   0.02    -0.02  -0.06  -0.00    -0.07  -0.02  -0.09
  20   6    -0.00  -0.00   0.00     0.01  -0.03  -0.03    -0.09  -0.01  -0.05
  21   6     0.00   0.00  -0.00     0.06  -0.07  -0.05    -0.09  -0.02  -0.04
  22   6     0.00   0.00  -0.00     0.07  -0.01  -0.06    -0.04  -0.07   0.00
  23   6    -0.01  -0.01  -0.02     0.02  -0.05  -0.04    -0.04  -0.07  -0.08
  24   6     0.00  -0.00   0.00     0.05  -0.10  -0.04    -0.10   0.01  -0.07
  25   1    -0.00  -0.00  -0.00     0.02  -0.02  -0.01    -0.04   0.00  -0.01
  26   1     0.00   0.00  -0.00     0.01  -0.03  -0.01    -0.03   0.01  -0.02
  27   1    -0.01   0.01   0.00    -0.01  -0.01  -0.00    -0.02  -0.01  -0.03
  28   1    -0.00  -0.00   0.00    -0.01  -0.02   0.00    -0.02  -0.01  -0.03
  29   1    -0.01   0.00   0.01    -0.01  -0.02   0.00    -0.02  -0.00  -0.03
  30   1    -0.01   0.00   0.02     0.01  -0.01  -0.01    -0.03  -0.00  -0.01
  31   1     0.00   0.00   0.01    -0.00  -0.00  -0.01    -0.02  -0.01  -0.01
  32   1    -0.01   0.00  -0.00     0.00  -0.01  -0.01    -0.03  -0.00  -0.02
  33   1     0.00   0.00  -0.00     0.02  -0.02  -0.02    -0.02  -0.01  -0.01
  34   1    -0.00   0.00   0.00     0.02  -0.02  -0.02    -0.03  -0.00  -0.00
  35   1     0.00  -0.00  -0.00     0.02   0.00  -0.02    -0.01  -0.02  -0.00
  36   1    -0.02  -0.03  -0.01     0.02  -0.00  -0.02    -0.01  -0.01   0.01
  37   1    -0.01   0.01  -0.00     0.02  -0.01  -0.02    -0.01  -0.02   0.00
  38   1    -0.00  -0.00  -0.00     0.01  -0.02  -0.01    -0.01  -0.01  -0.03
  39   1    -0.01  -0.00  -0.01     0.00  -0.01  -0.01    -0.01  -0.02  -0.03
  40   1    -0.01  -0.00  -0.00     0.01  -0.02  -0.01    -0.01  -0.02  -0.02
  41   1     0.00   0.00  -0.00     0.01  -0.03  -0.01    -0.03   0.00  -0.03
  42   1    -0.00  -0.00   0.00     0.02  -0.03  -0.01    -0.03   0.01  -0.02
  43   8     0.03  -0.05  -0.02    -0.14   0.14   0.07    -0.06   0.01   0.05
  44   6    -0.02   0.02   0.02    -0.11   0.11   0.10    -0.00   0.00   0.12
  45   8     0.02  -0.00  -0.01    -0.08   0.11   0.13     0.05  -0.08   0.18
  46   6     0.01  -0.01   0.00    -0.17   0.13   0.13    -0.01   0.10   0.19
  47   1     0.00  -0.01   0.00    -0.06   0.05   0.03    -0.01   0.04   0.05
  48   1     0.00  -0.00   0.00    -0.05   0.04   0.04    -0.01   0.04   0.05
  49   1     0.00  -0.01   0.00    -0.05   0.03   0.05     0.00   0.02   0.08
  50   8    -0.23  -0.06   0.18     0.06   0.06  -0.04    -0.06   0.03   0.05
  51   8    -0.01   0.00  -0.00    -0.11  -0.20   0.20     0.02   0.09   0.09
  52   6     0.02  -0.01  -0.01    -0.13  -0.23   0.16     0.04   0.12   0.09
  53   8    -0.01  -0.03   0.03    -0.11  -0.23   0.18    -0.00   0.04   0.07
  54   6     0.01  -0.00   0.00    -0.21  -0.37   0.13     0.15   0.28   0.14
  55   1     0.00  -0.00  -0.00    -0.07  -0.12   0.04     0.05   0.10   0.05
  56   1     0.00   0.00  -0.00    -0.08  -0.10   0.04     0.08   0.07   0.04
  57   1     0.00   0.00  -0.00    -0.04  -0.12   0.03     0.02   0.10   0.05
                      4                      5                      6
                        a                      a                      a 
 Frequencies --    59.5374                64.9030                68.4006
 Red. masses --    11.7967                14.7018                15.7898
 Frc consts  --     0.0000                 0.0000                 0.0000
 IR Inten    --     0.2381                 0.2428                 0.9219
 Raman Activ --     0.0000                 0.0000                 0.0000
 Depolar     --     0.0000                 0.0000                 0.0000
 Atom AN      X      Y      Z        X      Y      Z        X      Y      Z
   1  53    -0.10   0.09  -0.00    -0.08  -0.03   0.17    -0.07  -0.01  -0.20
   2   6    -0.01   0.02  -0.00     0.01   0.05  -0.03    -0.03  -0.02  -0.04
   3   6    -0.05   0.05   0.01     0.03   0.12  -0.01    -0.01  -0.08  -0.06
   4   6     0.04  -0.01  -0.02     0.03   0.02  -0.10    -0.06   0.01   0.01
   5   6    -0.05   0.04   0.01     0.06   0.15  -0.06     0.00  -0.11  -0.04
   6   1    -0.02   0.02   0.01     0.00   0.04   0.01     0.00  -0.03  -0.03
   7   6     0.04  -0.01  -0.02     0.06   0.05  -0.16    -0.06  -0.02   0.03
   8   1     0.03  -0.01  -0.01     0.01  -0.01  -0.04    -0.02   0.02   0.01
   9   6    -0.00   0.02   0.00     0.08   0.12  -0.13    -0.02  -0.08  -0.00
  10   1    -0.02   0.02   0.01     0.02   0.06  -0.01     0.01  -0.04  -0.02
  11   1     0.02  -0.01  -0.01     0.02   0.01  -0.06    -0.02   0.00   0.02
  12   1    -0.00   0.00   0.00     0.03   0.04  -0.05    -0.01  -0.03   0.00
  13   1    -0.00   0.00   0.01    -0.01  -0.01   0.01    -0.01  -0.00  -0.02
  14   8    -0.08  -0.03  -0.02     0.03   0.09   0.18    -0.02   0.01  -0.06
  15   7    -0.03  -0.04   0.01    -0.00  -0.01   0.07     0.00   0.01  -0.04
  16   6    -0.06  -0.02  -0.01    -0.04  -0.12   0.15     0.09  -0.03   0.03
  17   6    -0.00  -0.13   0.07     0.02   0.08  -0.07    -0.05   0.05   0.00
  18   6     0.02  -0.03   0.04    -0.10  -0.21   0.01     0.19  -0.09   0.07
  19   6    -0.14  -0.08  -0.05     0.01  -0.05   0.25     0.04  -0.02   0.14
  20   6    -0.06   0.08  -0.06    -0.06  -0.22   0.25     0.14  -0.04  -0.05
  21   6     0.07  -0.13   0.12    -0.03  -0.02  -0.19     0.06  -0.02   0.04
  22   6     0.03  -0.12   0.09     0.06   0.17  -0.15    -0.10   0.12  -0.13
  23   6    -0.07  -0.21   0.05     0.08   0.19  -0.01    -0.14   0.10   0.13
  24   6     0.04  -0.12   0.10    -0.07  -0.13  -0.12     0.14  -0.09   0.14
  25   1     0.02   0.01   0.01    -0.04  -0.08  -0.01     0.07  -0.03  -0.00
  26   1     0.00  -0.01   0.01    -0.04  -0.08   0.02     0.07  -0.04   0.04
  27   1    -0.05  -0.02  -0.02     0.01  -0.00   0.08    -0.00   0.01   0.04
  28   1    -0.04  -0.04  -0.01     0.00   0.00   0.07     0.00  -0.00   0.05
  29   1    -0.05  -0.02  -0.02     0.01  -0.03   0.09     0.02  -0.02   0.05
  30   1    -0.01   0.04  -0.01    -0.03  -0.08   0.06     0.05  -0.01  -0.03
  31   1    -0.03   0.02  -0.03    -0.00  -0.06   0.09     0.03  -0.01  -0.02
  32   1    -0.02   0.03  -0.03    -0.02  -0.08   0.08     0.06  -0.02  -0.01
  33   1     0.02  -0.06   0.05    -0.00   0.01  -0.08     0.01  -0.00   0.02
  34   1     0.03  -0.02   0.04    -0.02  -0.02  -0.07     0.04  -0.01  -0.02
  35   1     0.00  -0.04   0.02     0.01   0.07  -0.03    -0.05   0.05  -0.04
  36   1     0.01  -0.03   0.03     0.02   0.04  -0.05    -0.01   0.03  -0.06
  37   1     0.01  -0.05   0.03     0.02   0.05  -0.06    -0.04   0.04  -0.03
  38   1    -0.02  -0.07   0.01     0.02   0.05   0.00    -0.03   0.01   0.06
  39   1    -0.04  -0.06   0.00     0.03   0.06   0.02    -0.06   0.04   0.04
  40   1    -0.02  -0.08   0.03     0.02   0.08  -0.02    -0.05   0.04   0.03
  41   1    -0.00  -0.05   0.03    -0.01  -0.02  -0.02     0.03  -0.02   0.07
  42   1     0.03  -0.04   0.04    -0.03  -0.06  -0.06     0.06  -0.04   0.05
  43   8     0.07   0.03  -0.02     0.04  -0.11  -0.07    -0.05   0.03  -0.05
  44   6     0.18   0.09  -0.02     0.06  -0.07  -0.10    -0.01   0.06  -0.09
  45   8     0.04   0.00  -0.01     0.01  -0.07  -0.13    -0.10   0.08  -0.12
  46   6     0.56   0.32  -0.04     0.18  -0.05  -0.15     0.16   0.10  -0.14
  47   1     0.21   0.07   0.03     0.07  -0.03  -0.03     0.07   0.02  -0.02
  48   1     0.15   0.15  -0.07     0.05  -0.00  -0.06     0.05   0.05  -0.06
  49   1     0.20   0.10  -0.00     0.06  -0.01  -0.05     0.05   0.04  -0.05
  50   8     0.00   0.03   0.01     0.01   0.00   0.09    -0.03  -0.05  -0.13
  51   8    -0.07   0.07  -0.06    -0.11   0.07  -0.02    -0.12  -0.14   0.19
  52   6    -0.07   0.01  -0.06    -0.06   0.04  -0.01    -0.01   0.01   0.21
  53   8    -0.02   0.05  -0.07     0.00   0.08  -0.03    -0.04  -0.08   0.19
  54   6    -0.13  -0.12  -0.06    -0.08  -0.04   0.03     0.17   0.28   0.31
  55   1    -0.05  -0.04  -0.01    -0.04  -0.02   0.02     0.06   0.10   0.10
  56   1    -0.06  -0.04  -0.01    -0.03  -0.01   0.01     0.11   0.07   0.08
  57   1    -0.02  -0.06  -0.03    -0.01  -0.02   0.01     0.02   0.12   0.12
                      7                      8                      9
                        a                      a                      a 
 Frequencies --    72.9135                83.1602                93.0436
 Red. masses --    21.4810                13.9708                13.6252
 Frc consts  --     0.0000                 0.0000                 0.0000
 IR Inten    --     0.7951                 0.4663                 3.7360
 Raman Activ --     0.0000                 0.0000                 0.0000
 Depolar     --     0.0000                 0.0000                 0.0000
 Atom AN      X      Y      Z        X      Y      Z        X      Y      Z
   1  53     0.06  -0.22  -0.20    -0.01  -0.08  -0.12     0.02   0.02  -0.07
   2   6    -0.01  -0.01  -0.09    -0.01  -0.03  -0.03     0.02  -0.01  -0.02
   3   6    -0.08   0.08  -0.05    -0.15   0.07   0.03     0.03  -0.03  -0.03
   4   6    -0.03  -0.01  -0.12     0.10  -0.11  -0.07     0.00   0.01  -0.00
   5   6    -0.19   0.19  -0.03    -0.20   0.11   0.04     0.02  -0.04  -0.02
   6   1    -0.01   0.02  -0.01    -0.06   0.03   0.02     0.01  -0.01  -0.01
   7   6    -0.14   0.10  -0.10     0.05  -0.07  -0.06    -0.01   0.00   0.01
   8   1     0.01  -0.03  -0.05     0.06  -0.06  -0.03    -0.00   0.01   0.00
   9   6    -0.22   0.20  -0.06    -0.10   0.04  -0.00     0.01  -0.02   0.00
  10   1    -0.07   0.08   0.00    -0.09   0.06   0.03     0.01  -0.02  -0.01
  11   1    -0.05   0.03  -0.04     0.04  -0.04  -0.03    -0.01   0.00   0.01
  12   1    -0.09   0.08  -0.01    -0.04   0.02   0.00    -0.00  -0.01   0.00
  13   1     0.02  -0.03  -0.00    -0.00   0.02  -0.00     0.02   0.01   0.03
  14   8     0.04  -0.09   0.02     0.03   0.09  -0.00     0.05   0.06   0.12
  15   7     0.04  -0.07   0.04     0.02   0.08  -0.01     0.06   0.02   0.10
  16   6     0.08  -0.03   0.04    -0.01   0.05  -0.01    -0.02   0.03   0.05
  17   6    -0.02   0.00   0.03     0.04   0.05  -0.01     0.13  -0.06   0.07
  18   6    -0.04   0.06   0.01     0.11  -0.04   0.03    -0.09   0.06   0.01
  19   6     0.21   0.04   0.02    -0.14  -0.01   0.02     0.01   0.01  -0.03
  20   6     0.09  -0.16   0.10    -0.03   0.16  -0.05    -0.06   0.04   0.13
  21   6    -0.13   0.10   0.02     0.17  -0.07   0.01     0.06  -0.01   0.04
  22   6    -0.08  -0.09   0.08     0.06   0.15  -0.11     0.20  -0.11   0.19
  23   6     0.08   0.06  -0.01    -0.08   0.02   0.08     0.20  -0.12  -0.05
  24   6    -0.09   0.17  -0.02     0.15  -0.15   0.08    -0.04   0.04  -0.05
  25   1    -0.04  -0.00   0.01     0.06   0.00  -0.00    -0.04   0.02   0.03
  26   1     0.00   0.03  -0.00     0.02  -0.03   0.02    -0.04   0.03  -0.01
  27   1     0.09   0.00   0.02    -0.07   0.00  -0.01     0.02  -0.00   0.00
  28   1     0.06   0.03  -0.01    -0.05  -0.02   0.03     0.01  -0.00  -0.03
  29   1     0.06   0.01   0.01    -0.04   0.00   0.00    -0.02   0.01  -0.02
  30   1     0.00  -0.06   0.03     0.01   0.06  -0.01    -0.02   0.01   0.04
  31   1     0.04  -0.05   0.04    -0.02   0.05  -0.03    -0.01   0.01   0.05
  32   1     0.03  -0.05   0.03    -0.01   0.05  -0.02    -0.03   0.01   0.03
  33   1    -0.04   0.05  -0.00     0.06  -0.04   0.01     0.03  -0.01   0.00
  34   1    -0.06   0.02   0.02     0.08  -0.01  -0.01     0.01   0.01   0.04
  35   1    -0.00  -0.04   0.03    -0.01   0.07  -0.03     0.08  -0.04   0.06
  36   1    -0.04  -0.04   0.03     0.04   0.05  -0.05     0.04  -0.02   0.08
  37   1    -0.04  -0.01   0.02     0.02   0.04  -0.03     0.07  -0.03   0.05
  38   1     0.03   0.04  -0.01    -0.03  -0.02   0.04     0.05  -0.02  -0.04
  39   1     0.04   0.00   0.00    -0.05   0.02   0.02     0.07  -0.04  -0.02
  40   1     0.02   0.03  -0.01    -0.02   0.01   0.02     0.07  -0.05  -0.01
  41   1    -0.00   0.07  -0.02     0.01  -0.06   0.04     0.00   0.01  -0.04
  42   1    -0.05   0.07  -0.01     0.07  -0.07   0.03    -0.03   0.02  -0.02
  43   8    -0.09   0.00   0.02     0.13  -0.06  -0.04    -0.01   0.04   0.00
  44   6     0.02   0.01   0.15     0.12  -0.08   0.09    -0.02   0.04  -0.02
  45   8     0.04  -0.13   0.22     0.38  -0.12   0.14    -0.01   0.09  -0.04
  46   6     0.13   0.23   0.24    -0.18  -0.12   0.20    -0.05  -0.01  -0.04
  47   1     0.05   0.08   0.08    -0.09  -0.00   0.02    -0.02   0.00  -0.01
  48   1     0.03   0.11   0.04    -0.05  -0.06   0.09    -0.01  -0.01  -0.01
  49   1     0.06   0.06   0.11    -0.07  -0.05   0.08    -0.02  -0.00  -0.02
  50   8     0.04  -0.12  -0.09    -0.03  -0.00  -0.03     0.07   0.02  -0.00
  51   8    -0.01   0.08   0.02    -0.23   0.18  -0.03    -0.55  -0.35  -0.21
  52   6     0.02   0.02   0.02    -0.09   0.07  -0.00    -0.17  -0.05  -0.07
  53   8     0.02  -0.07  -0.04     0.01   0.04  -0.12     0.01   0.08  -0.14
  54   6     0.08   0.05   0.10    -0.05  -0.01   0.15     0.06   0.20   0.15
  55   1     0.02   0.02   0.04    -0.04   0.01   0.07     0.01   0.08   0.07
  56   1     0.04   0.01   0.03     0.00  -0.02   0.05     0.09   0.04   0.03
  57   1     0.02   0.02   0.04     0.00  -0.02   0.04    -0.01   0.09   0.08
                     10                     11                     12
                        a                      a                      a 
 Frequencies --    95.7587               103.9275               122.3292
 Red. masses --    21.2646                18.5324                15.5453
 Frc consts  --     0.0000                 0.0000                 0.0000
 IR Inten    --     5.9628                 4.3682                 1.7096
 Raman Activ --     0.0000                 0.0000                 0.0000
 Depolar     --     0.0000                 0.0000                 0.0000
 Atom AN      X      Y      Z        X      Y      Z        X      Y      Z
   1  53    -0.09  -0.18   0.20    -0.09  -0.11  -0.16    -0.10  -0.10   0.02
   2   6     0.04  -0.02  -0.04    -0.03  -0.08  -0.04    -0.06  -0.00   0.00
   3   6     0.10   0.00  -0.04    -0.12  -0.05  -0.01    -0.01  -0.05  -0.02
   4   6    -0.06   0.03  -0.06     0.04  -0.13  -0.05    -0.09   0.02   0.02
   5   6     0.03   0.10  -0.05    -0.13  -0.07  -0.00     0.06  -0.10  -0.04
   6   1     0.05  -0.01  -0.01    -0.05  -0.01  -0.00    -0.00  -0.01  -0.01
   7   6    -0.14   0.14  -0.06     0.04  -0.15  -0.04    -0.04  -0.03   0.01
   8   1    -0.02   0.00  -0.02     0.02  -0.04  -0.02    -0.04   0.02   0.01
   9   6    -0.10   0.17  -0.05    -0.04  -0.13  -0.02     0.05  -0.10  -0.03
  10   1     0.02   0.03  -0.01    -0.06  -0.01   0.01     0.03  -0.04  -0.02
  11   1    -0.07   0.05  -0.02     0.03  -0.05  -0.01    -0.01  -0.00   0.01
  12   1    -0.05   0.07  -0.01    -0.01  -0.04  -0.00     0.03  -0.04  -0.01
  13   1    -0.01   0.02   0.02     0.01   0.01   0.02     0.01   0.01   0.01
  14   8     0.04   0.07   0.03     0.09   0.11   0.17     0.11   0.03   0.02
  15   7    -0.01   0.09  -0.01     0.07   0.06   0.11     0.08   0.07   0.02
  16   6    -0.06   0.08  -0.04    -0.04   0.04   0.08     0.05   0.10  -0.02
  17   6     0.03   0.07  -0.05     0.14   0.02   0.04     0.13   0.06  -0.02
  18   6     0.00   0.03  -0.03    -0.08   0.02   0.02     0.07   0.08  -0.02
  19   6    -0.15   0.03  -0.05    -0.06   0.01   0.02     0.03   0.07  -0.06
  20   6    -0.08   0.18  -0.06    -0.11   0.10   0.16     0.03   0.16  -0.03
  21   6     0.09  -0.01  -0.05     0.11  -0.02  -0.01     0.16   0.02  -0.02
  22   6     0.08   0.15  -0.10     0.22   0.03   0.08     0.18   0.11  -0.05
  23   6    -0.02   0.05  -0.01     0.19  -0.01  -0.02     0.12   0.05  -0.02
  24   6     0.05  -0.06  -0.03     0.00  -0.03  -0.06     0.13   0.01  -0.03
  25   1     0.02   0.02  -0.01    -0.03   0.01   0.02     0.03   0.04   0.00
  26   1    -0.01  -0.00  -0.01    -0.05   0.00  -0.00     0.01   0.02  -0.01
  27   1    -0.06   0.01  -0.03    -0.01   0.00   0.01     0.01   0.02  -0.01
  28   1    -0.05  -0.01   0.00    -0.01  -0.01   0.00     0.01   0.01  -0.02
  29   1    -0.04   0.01  -0.02    -0.03   0.01   0.00    -0.00   0.02  -0.02
  30   1    -0.00   0.07  -0.02    -0.03   0.04   0.05     0.02   0.05  -0.00
  31   1    -0.04   0.06  -0.02    -0.03   0.04   0.06     0.00   0.05  -0.01
  32   1    -0.03   0.05  -0.02    -0.05   0.03   0.04     0.00   0.05  -0.01
  33   1     0.03  -0.01  -0.01     0.05  -0.02  -0.02     0.05  -0.01  -0.00
  34   1     0.04   0.01  -0.02     0.03   0.00   0.01     0.06   0.02  -0.01
  35   1     0.00   0.06  -0.03     0.07   0.01   0.03     0.04   0.04  -0.01
  36   1     0.04   0.05  -0.04     0.06   0.01   0.03     0.06   0.04  -0.02
  37   1     0.03   0.03  -0.03     0.07   0.01   0.01     0.06   0.03  -0.02
  38   1    -0.01  -0.00  -0.00     0.04  -0.00  -0.02     0.03   0.00  -0.01
  39   1    -0.02   0.03   0.00     0.06  -0.00   0.00     0.03   0.02   0.00
  40   1     0.00   0.01  -0.01     0.07  -0.01  -0.01     0.04   0.01  -0.01
  41   1    -0.00  -0.03  -0.00     0.00  -0.02  -0.03     0.03  -0.01  -0.01
  42   1     0.03  -0.03  -0.01    -0.01  -0.02  -0.03     0.04  -0.00  -0.01
  43   8    -0.04  -0.07   0.04    -0.15   0.08   0.07    -0.07  -0.05  -0.05
  44   6     0.04  -0.03   0.07    -0.05   0.14  -0.02    -0.18  -0.14   0.03
  45   8     0.06  -0.06   0.09    -0.00   0.31  -0.06    -0.52  -0.44   0.09
  46   6     0.12   0.06   0.09    -0.01   0.07  -0.09     0.06   0.11   0.09
  47   1     0.04   0.02   0.04     0.01   0.01  -0.02     0.05   0.04   0.05
  48   1     0.03   0.04   0.01     0.00   0.01  -0.03     0.01   0.08  -0.03
  49   1     0.04   0.02   0.04    -0.00   0.03  -0.05     0.04   0.03   0.06
  50   8    -0.06   0.06   0.15     0.02  -0.07  -0.06     0.01  -0.03   0.03
  51   8     0.17  -0.42  -0.08     0.29   0.27   0.15    -0.06   0.16   0.01
  52   6     0.07  -0.16  -0.06     0.04   0.02   0.05    -0.02   0.07   0.01
  53   8    -0.12  -0.22   0.05    -0.22  -0.30   0.01     0.07   0.13  -0.02
  54   6     0.17   0.18  -0.21     0.02   0.04  -0.02    -0.08  -0.09   0.06
  55   1     0.10   0.06  -0.09     0.02   0.02  -0.01    -0.04  -0.03   0.03
  56   1     0.08   0.06  -0.08     0.00   0.01  -0.00    -0.04  -0.03   0.02
  57   1    -0.01   0.11  -0.05    -0.01   0.02  -0.01     0.00  -0.05   0.01
                     13                     14                     15
                        a                      a                      a 
 Frequencies --   131.8567               144.0464               146.3984
 Red. masses --    27.2546                32.5540                 9.1993
 Frc consts  --     0.0000                 0.0000                 0.0000
 IR Inten    --    16.7397                13.5800                 0.1008
 Raman Activ --     0.0000                 0.0000                 0.0000
 Depolar     --     0.0000                 0.0000                 0.0000
 Atom AN      X      Y      Z        X      Y      Z        X      Y      Z
   1  53     0.12  -0.25   0.21     0.33   0.17  -0.20     0.05  -0.03  -0.05
   2   6     0.06  -0.08   0.06     0.11  -0.01  -0.03    -0.01   0.01  -0.01
   3   6     0.03   0.03   0.12    -0.06   0.06   0.01     0.02  -0.02  -0.03
   4   6     0.06  -0.12  -0.02     0.22  -0.06  -0.03    -0.04   0.03   0.01
   5   6     0.00   0.13   0.07    -0.15   0.09   0.07     0.03  -0.04  -0.03
   6   1     0.01   0.01   0.06    -0.03   0.03  -0.00     0.01  -0.01  -0.01
   7   6     0.05  -0.03  -0.08     0.18  -0.07   0.02    -0.04   0.03   0.01
   8   1     0.01  -0.06  -0.02     0.08  -0.02  -0.01    -0.01   0.02   0.00
   9   6     0.02   0.09  -0.03    -0.02   0.01   0.07     0.00  -0.02  -0.01
  10   1    -0.01   0.07   0.03    -0.09   0.04   0.03     0.02  -0.02  -0.01
  11   1     0.02  -0.02  -0.05     0.08  -0.04   0.01    -0.02   0.01   0.01
  12   1     0.00   0.05  -0.02    -0.02   0.01   0.03     0.00  -0.01  -0.00
  13   1     0.02  -0.03  -0.01     0.01   0.01   0.01     0.01  -0.00   0.00
  14   8     0.07  -0.09  -0.02    -0.05   0.02   0.04     0.01   0.01   0.04
  15   7    -0.00  -0.04  -0.04    -0.04   0.02   0.05     0.00   0.01   0.03
  16   6     0.03  -0.00  -0.07    -0.12   0.01   0.05    -0.02  -0.03   0.05
  17   6    -0.04   0.03  -0.05    -0.08   0.04   0.07    -0.02   0.06  -0.01
  18   6     0.09  -0.01  -0.02    -0.13   0.00   0.04     0.22  -0.22   0.09
  19   6    -0.02  -0.03  -0.07    -0.16  -0.01   0.04    -0.35  -0.17   0.15
  20   6     0.05   0.06  -0.15    -0.18   0.06   0.11    -0.03   0.23  -0.12
  21   6    -0.02   0.02  -0.04    -0.07   0.01   0.06    -0.26   0.18  -0.12
  22   6    -0.10   0.05  -0.12    -0.12   0.05   0.03    -0.04  -0.12   0.17
  23   6    -0.06   0.08  -0.00    -0.12   0.05   0.11     0.23   0.12  -0.20
  24   6     0.06  -0.00   0.03    -0.12  -0.02   0.05     0.01   0.09   0.10
  25   1     0.04  -0.00  -0.02    -0.04   0.00   0.02     0.09  -0.12  -0.08
  26   1     0.04  -0.01   0.00    -0.04   0.00   0.01     0.13  -0.12   0.11
  27   1    -0.02  -0.01  -0.03    -0.05  -0.00   0.01    -0.15  -0.01   0.03
  28   1    -0.01  -0.01  -0.00    -0.05  -0.01   0.02    -0.10  -0.10   0.07
  29   1     0.00  -0.00  -0.02    -0.05  -0.00   0.01    -0.12  -0.06   0.05
  30   1     0.03   0.03  -0.04    -0.05   0.02   0.04     0.04   0.10  -0.03
  31   1    -0.00   0.02  -0.06    -0.05   0.02   0.04    -0.05   0.08  -0.07
  32   1     0.02   0.02  -0.04    -0.07   0.02   0.03    -0.01   0.08  -0.04
  33   1    -0.02   0.02  -0.00    -0.01  -0.00   0.01    -0.12   0.15  -0.06
  34   1    -0.01  -0.00  -0.03    -0.02   0.01   0.02    -0.14  -0.03  -0.07
  35   1    -0.04   0.02  -0.04    -0.04   0.02   0.01     0.03  -0.07   0.05
  36   1    -0.03   0.00  -0.05    -0.03   0.01   0.00    -0.05  -0.04   0.09
  37   1    -0.04   0.02  -0.03    -0.04   0.02   0.01    -0.02  -0.02   0.05
  38   1    -0.02   0.01   0.01    -0.04  -0.00   0.04     0.04   0.03  -0.10
  39   1    -0.02   0.03   0.01    -0.04   0.03   0.04     0.11   0.03  -0.01
  40   1    -0.01   0.03  -0.01    -0.03   0.02   0.02     0.11   0.05  -0.09
  41   1     0.01   0.00   0.02    -0.04  -0.01   0.02     0.02   0.08   0.09
  42   1     0.03  -0.01   0.01    -0.03  -0.01   0.02    -0.00   0.01   0.01
  43   8    -0.14   0.10   0.32     0.15   0.04   0.01    -0.02  -0.03  -0.04
  44   6    -0.13   0.15   0.09    -0.08  -0.08  -0.00     0.00  -0.02  -0.01
  45   8    -0.28   0.38   0.01    -0.39  -0.25   0.00     0.04  -0.04   0.00
  46   6     0.04  -0.01  -0.09     0.02  -0.07  -0.04     0.00   0.02   0.02
  47   1     0.04  -0.04  -0.01     0.02  -0.02   0.00     0.00   0.01   0.01
  48   1     0.02  -0.01  -0.03     0.01  -0.02  -0.03    -0.00   0.01  -0.00
  49   1     0.01   0.01  -0.08    -0.00  -0.02  -0.02     0.00   0.00   0.02
  50   8    -0.03  -0.09   0.05     0.05   0.09  -0.05     0.01  -0.00  -0.01
  51   8    -0.18   0.14  -0.19     0.06  -0.13  -0.04     0.01   0.02   0.02
  52   6    -0.02   0.02  -0.14     0.06  -0.12  -0.03     0.02   0.01   0.02
  53   8     0.07  -0.03  -0.25     0.03  -0.22  -0.07     0.05   0.02   0.00
  54   6     0.05  -0.04   0.07     0.14  -0.02   0.03     0.01  -0.03   0.04
  55   1    -0.01   0.01   0.05     0.04   0.00   0.01    -0.00  -0.01   0.02
  56   1     0.04  -0.03   0.03     0.07  -0.01  -0.00     0.00  -0.01   0.01
  57   1     0.03  -0.02   0.02     0.03   0.01   0.02     0.01  -0.02   0.01
                     16                     17                     18
                        a                      a                      a 
 Frequencies --   149.9604               155.3057               188.6302
 Red. masses --    22.7968                14.7994                17.3690
 Frc consts  --     0.0000                 0.0000                 0.0000
 IR Inten    --     2.2379                 1.1375                12.0257
 Raman Activ --     0.0000                 0.0000                 0.0000
 Depolar     --     0.0000                 0.0000                 0.0000
 Atom AN      X      Y      Z        X      Y      Z        X      Y      Z
   1  53    -0.23   0.18   0.15     0.06  -0.07  -0.02     0.02   0.07   0.19
   2   6     0.01  -0.01   0.02    -0.13   0.03   0.01     0.09  -0.01  -0.01
   3   6    -0.15   0.10   0.08    -0.21   0.08   0.04    -0.00  -0.03  -0.00
   4   6     0.18  -0.13  -0.04     0.03  -0.09  -0.07     0.12  -0.02   0.02
   5   6    -0.23   0.15   0.11    -0.19   0.07   0.03    -0.09  -0.03   0.07
   6   1    -0.06   0.04   0.03    -0.07   0.03   0.02    -0.01  -0.01  -0.01
   7   6     0.19  -0.14  -0.05     0.12  -0.15  -0.11     0.07  -0.05   0.09
   8   1     0.08  -0.06  -0.03     0.02  -0.05  -0.03     0.04   0.00   0.01
   9   6    -0.06   0.04   0.04    -0.01  -0.05  -0.06    -0.05  -0.04   0.11
  10   1    -0.12   0.08   0.05    -0.08   0.04   0.02    -0.06  -0.01   0.02
  11   1     0.10  -0.07  -0.03     0.08  -0.08  -0.05     0.03  -0.02   0.04
  12   1    -0.03   0.02   0.02     0.01  -0.02  -0.02    -0.03  -0.01   0.05
  13   1    -0.02   0.01  -0.02     0.02  -0.02   0.01    -0.01   0.01   0.01
  14   8    -0.03   0.02  -0.09     0.07  -0.05   0.04    -0.03  -0.02  -0.02
  15   7     0.03  -0.00  -0.08     0.03  -0.02   0.05    -0.03   0.00  -0.03
  16   6     0.14  -0.04  -0.01    -0.01   0.01   0.00     0.02  -0.01  -0.01
  17   6     0.05  -0.04  -0.06     0.01   0.02   0.02    -0.02  -0.01  -0.02
  18   6     0.21  -0.08  -0.00    -0.01   0.02   0.01     0.03  -0.02  -0.01
  19   6     0.15  -0.00   0.07    -0.02  -0.01  -0.04     0.04   0.02   0.03
  20   6     0.22  -0.11  -0.10    -0.05   0.08   0.03     0.05  -0.05  -0.03
  21   6     0.00   0.03  -0.05     0.01   0.00   0.01    -0.01  -0.01  -0.02
  22   6     0.09  -0.10   0.04    -0.01   0.05  -0.02     0.02   0.01  -0.02
  23   6     0.12  -0.06  -0.14     0.02   0.07   0.06    -0.03  -0.02  -0.02
  24   6     0.13   0.05  -0.00     0.00  -0.01   0.02     0.01  -0.00  -0.01
  25   1     0.06  -0.04  -0.04    -0.00   0.01   0.01     0.01  -0.01  -0.01
  26   1     0.09  -0.04   0.03    -0.01   0.01  -0.00     0.01  -0.01   0.00
  27   1     0.05   0.02   0.04    -0.01  -0.01  -0.02     0.02   0.01   0.01
  28   1     0.05   0.00  -0.00    -0.01  -0.00   0.00     0.01   0.01   0.00
  29   1     0.02  -0.02   0.04     0.00   0.01  -0.02     0.01  -0.00   0.01
  30   1     0.05  -0.04  -0.03    -0.01   0.03   0.02     0.00  -0.02  -0.01
  31   1     0.06  -0.04  -0.04    -0.01   0.02   0.01     0.02  -0.02  -0.01
  32   1     0.09  -0.02  -0.03    -0.03   0.03   0.00     0.02  -0.01  -0.01
  33   1    -0.02   0.03  -0.01     0.01   0.00   0.00    -0.01   0.00  -0.00
  34   1    -0.02  -0.01  -0.02     0.01   0.00   0.00    -0.00  -0.01  -0.01
  35   1     0.04  -0.05   0.01    -0.01   0.02  -0.00    -0.00   0.01  -0.01
  36   1     0.02  -0.02   0.03    -0.01   0.00  -0.02     0.02   0.02  -0.01
  37   1     0.03  -0.04   0.02    -0.01   0.02  -0.01     0.01  -0.01  -0.00
  38   1     0.04   0.01  -0.05    -0.00   0.01   0.02    -0.00   0.00  -0.00
  39   1     0.05  -0.04  -0.05     0.01   0.03   0.03    -0.01  -0.01  -0.02
  40   1     0.03  -0.03  -0.03     0.01   0.03   0.00    -0.02  -0.01   0.00
  41   1     0.05   0.04   0.01    -0.01  -0.01   0.01     0.01   0.00  -0.00
  42   1     0.02   0.02  -0.01     0.01  -0.01   0.01     0.00   0.00  -0.00
  43   8     0.12   0.04   0.02    -0.25  -0.03  -0.06    -0.44  -0.13  -0.35
  44   6    -0.02  -0.03  -0.01    -0.07   0.06  -0.04    -0.11  -0.00  -0.18
  45   8    -0.17  -0.10  -0.01     0.03   0.12  -0.05     0.15  -0.06  -0.14
  46   6    -0.02  -0.07  -0.04    -0.04   0.11  -0.02    -0.12   0.27  -0.01
  47   1    -0.00  -0.02  -0.01    -0.01   0.03  -0.01    -0.06   0.08  -0.02
  48   1    -0.00  -0.03  -0.01    -0.02   0.05  -0.01    -0.08   0.14  -0.00
  49   1    -0.01  -0.02  -0.02     0.00   0.03   0.00     0.03   0.08   0.06
  50   8    -0.01   0.05   0.03     0.02  -0.11  -0.05     0.03   0.21   0.23
  51   8     0.01  -0.14   0.01     0.08  -0.37   0.03    -0.01   0.06  -0.10
  52   6    -0.08  -0.03  -0.01     0.12  -0.00   0.08     0.05  -0.05  -0.09
  53   8    -0.23  -0.06   0.07     0.32   0.46   0.28     0.07  -0.17  -0.17
  54   6    -0.06   0.16  -0.16    -0.01  -0.07  -0.13     0.14  -0.08   0.11
  55   1     0.02   0.04  -0.08     0.01  -0.05  -0.07    -0.05  -0.10   0.04
  56   1    -0.02   0.06  -0.06    -0.06  -0.01  -0.03     0.10   0.06  -0.05
  57   1    -0.05   0.08  -0.04     0.00  -0.04  -0.06     0.11  -0.01   0.16
                     19                     20                     21
                        a                      a                      a 
 Frequencies --   190.9048               198.2958               201.4052
 Red. masses --     1.8256                 2.4522                18.0788
 Frc consts  --     0.0000                 0.0000                 0.0000
 IR Inten    --     0.5986                 4.5834                43.8084
 Raman Activ --     0.0000                 0.0000                 0.0000
 Depolar     --     0.0000                 0.0000                 0.0000
 Atom AN      X      Y      Z        X      Y      Z        X      Y      Z
   1  53     0.00  -0.03  -0.03    -0.05   0.02  -0.04    -0.22   0.11  -0.06
   2   6    -0.03   0.01   0.00    -0.00  -0.01  -0.02     0.02  -0.06  -0.09
   3   6    -0.01   0.02   0.00     0.00  -0.02  -0.03     0.02  -0.08  -0.10
   4   6    -0.03   0.01  -0.01    -0.01  -0.01  -0.02     0.02  -0.06  -0.09
   5   6     0.02   0.02  -0.02    -0.01  -0.01  -0.02    -0.05  -0.05  -0.07
   6   1    -0.00   0.01   0.00     0.00  -0.01  -0.01     0.02  -0.03  -0.04
   7   6    -0.01   0.01  -0.03    -0.02   0.00  -0.01    -0.05  -0.02  -0.05
   8   1    -0.01   0.00  -0.00     0.00  -0.00  -0.01     0.02  -0.02  -0.03
   9   6     0.02   0.01  -0.03    -0.03   0.00  -0.01    -0.12  -0.00  -0.04
  10   1     0.01   0.00  -0.01    -0.00  -0.00  -0.01    -0.02  -0.01  -0.02
  11   1    -0.00   0.00  -0.01    -0.01   0.00  -0.00    -0.02  -0.00  -0.01
  12   1     0.01   0.00  -0.01    -0.01   0.00  -0.00    -0.06   0.01  -0.00
  13   1     0.00  -0.01  -0.00    -0.01   0.01  -0.00    -0.02   0.05  -0.01
  14   8     0.01  -0.01   0.01    -0.03   0.04  -0.02    -0.11   0.11  -0.08
  15   7     0.01  -0.01   0.01    -0.02   0.04  -0.02    -0.08   0.14  -0.06
  16   6    -0.00   0.00  -0.00    -0.01   0.02   0.01    -0.00   0.05   0.04
  17   6     0.00  -0.00   0.01     0.01  -0.00  -0.01     0.00  -0.00  -0.02
  18   6    -0.00   0.01   0.00     0.00  -0.01  -0.00     0.02  -0.01   0.00
  19   6    -0.01  -0.01  -0.03    -0.01   0.03   0.06    -0.01   0.12   0.21
  20   6    -0.01   0.02   0.00     0.01  -0.01   0.01     0.05  -0.07   0.03
  21   6     0.00   0.00   0.02     0.01  -0.00  -0.01     0.03   0.00  -0.00
  22   6    -0.01  -0.01   0.01     0.04  -0.00   0.02     0.13  -0.00   0.08
  23   6     0.01   0.01   0.02    -0.01  -0.04  -0.03    -0.05  -0.14  -0.10
  24   6    -0.00   0.00   0.01     0.00   0.00  -0.01     0.02   0.03  -0.03
  25   1    -0.00   0.01   0.00     0.00  -0.01  -0.01     0.01  -0.01  -0.02
  26   1    -0.00   0.01  -0.00     0.00  -0.01   0.00     0.01  -0.02   0.02
  27   1    -0.00  -0.01  -0.01    -0.00   0.03   0.03     0.01   0.09   0.10
  28   1    -0.00  -0.00  -0.01     0.00   0.01   0.01     0.01   0.03   0.01
  29   1    -0.00   0.00  -0.01    -0.02  -0.00   0.03    -0.04  -0.01   0.10
  30   1    -0.00   0.01   0.00    -0.00  -0.01  -0.00     0.00  -0.03  -0.01
  31   1    -0.01   0.01   0.00     0.00  -0.00   0.00     0.02  -0.02   0.01
  32   1    -0.01   0.00   0.00     0.01  -0.01   0.01     0.03  -0.03   0.02
  33   1     0.00  -0.00   0.00     0.01  -0.00  -0.00     0.01  -0.01   0.01
  34   1     0.00   0.00   0.00     0.01   0.00   0.00     0.02   0.01   0.01
  35   1     0.00  -0.00   0.00     0.01  -0.00   0.01     0.04  -0.01   0.02
  36   1    -0.01  -0.01   0.00     0.01   0.01   0.01     0.04   0.02   0.04
  37   1    -0.01   0.00  -0.00     0.02  -0.01   0.01     0.06  -0.02   0.02
  38   1    -0.00  -0.01   0.00     0.01   0.01  -0.01     0.01   0.00  -0.03
  39   1     0.00   0.01   0.01    -0.00  -0.03  -0.03    -0.02  -0.07  -0.09
  40   1     0.01   0.01  -0.00    -0.02  -0.02   0.01    -0.05  -0.08   0.02
  41   1    -0.00  -0.00   0.00     0.00   0.00  -0.01     0.02   0.01  -0.02
  42   1     0.00   0.00   0.00    -0.00   0.00  -0.01    -0.01   0.02  -0.01
  43   8     0.09   0.03   0.06     0.03  -0.02   0.09    -0.01  -0.07   0.21
  44   6     0.02  -0.00   0.03     0.02  -0.00   0.05    -0.01  -0.01   0.12
  45   8    -0.02   0.02   0.02    -0.04   0.02   0.04    -0.03   0.10   0.09
  46   6     0.02  -0.06  -0.01     0.04  -0.07   0.01     0.09  -0.16  -0.00
  47   1     0.02   0.02   0.02    -0.16  -0.51  -0.24     0.10   0.06   0.08
  48   1     0.04  -0.05  -0.02    -0.35   0.22   0.36     0.14  -0.14  -0.10
  49   1    -0.04  -0.03  -0.01     0.48   0.19  -0.11    -0.12  -0.09  -0.02
  50   8     0.00  -0.06  -0.05    -0.04   0.04  -0.01    -0.14   0.16   0.03
  51   8     0.01   0.01   0.03     0.03  -0.02  -0.00     0.12  -0.06  -0.05
  52   6    -0.03  -0.00   0.02     0.04  -0.00   0.00     0.18  -0.03  -0.03
  53   8    -0.03   0.03   0.04     0.08   0.03   0.00     0.34   0.07  -0.04
  54   6    -0.04   0.02  -0.03     0.05  -0.04   0.03     0.20  -0.22   0.15
  55   1    -0.28  -0.43  -0.15    -0.02  -0.05   0.01    -0.00  -0.07   0.08
  56   1     0.05   0.45  -0.38     0.02   0.02  -0.02     0.07  -0.07   0.04
  57   1     0.23   0.07   0.50     0.04  -0.01   0.05     0.11  -0.10   0.06
                     22                     23                     24
                        a                      a                      a 
 Frequencies --   227.6184               233.9902               242.4227
 Red. masses --    12.4405                11.6866                41.4623
 Frc consts  --     0.0000                 0.0000                 0.0000
 IR Inten    --    15.4624                 4.4551               104.6217
 Raman Activ --     0.0000                 0.0000                 0.0000
 Depolar     --     0.0000                 0.0000                 0.0000
 Atom AN      X      Y      Z        X      Y      Z        X      Y      Z
   1  53    -0.10   0.02  -0.03    -0.02  -0.03  -0.06     0.25  -0.38  -0.24
   2   6     0.14   0.17  -0.26     0.35  -0.29  -0.04     0.01   0.10   0.03
   3   6    -0.00   0.04  -0.31     0.36  -0.25  -0.03    -0.02   0.13   0.04
   4   6     0.22   0.21  -0.06     0.29  -0.27  -0.07     0.03   0.13   0.11
   5   6    -0.13  -0.12  -0.11     0.11  -0.02   0.04     0.02   0.06   0.07
   6   1    -0.02   0.01  -0.14     0.12  -0.08  -0.00    -0.02   0.05   0.02
   7   6     0.11   0.06   0.16    -0.04   0.00   0.02     0.10   0.05   0.12
   8   1     0.10   0.11  -0.00     0.09  -0.10  -0.03     0.01   0.06   0.04
   9   6    -0.08  -0.08   0.12    -0.23   0.19   0.11     0.14   0.00   0.10
  10   1    -0.08  -0.07  -0.04     0.02   0.02   0.02    -0.01   0.01   0.02
  11   1     0.05   0.03   0.10    -0.06   0.03   0.01     0.04   0.01   0.04
  12   1    -0.05  -0.05   0.08    -0.17   0.14   0.06     0.06  -0.02   0.02
  13   1     0.01  -0.01   0.02     0.00   0.00   0.00     0.02   0.03  -0.01
  14   8     0.03  -0.09   0.04     0.00   0.02   0.03    -0.01   0.04  -0.12
  15   7     0.04  -0.10   0.05    -0.02   0.01   0.02    -0.07   0.13  -0.07
  16   6     0.02  -0.04  -0.02    -0.03   0.01   0.01    -0.02   0.06   0.01
  17   6     0.00  -0.01   0.01    -0.00   0.00   0.01    -0.02   0.02  -0.02
  18   6     0.01   0.00  -0.00    -0.06   0.02   0.00     0.02  -0.03  -0.03
  19   6     0.05  -0.09  -0.16    -0.07  -0.00   0.02    -0.07   0.14   0.26
  20   6     0.00   0.02  -0.02    -0.00  -0.00  -0.03     0.00  -0.02   0.03
  21   6    -0.03  -0.01  -0.02    -0.00  -0.00   0.01    -0.00   0.02  -0.01
  22   6    -0.04   0.02  -0.05     0.01   0.01   0.01     0.08   0.04   0.04
  23   6     0.06   0.11   0.06    -0.01  -0.01   0.00    -0.17  -0.18  -0.08
  24   6     0.01  -0.02   0.02    -0.04   0.00  -0.01    -0.02   0.06  -0.06
  25   1     0.00   0.01   0.01    -0.02   0.01   0.01     0.01  -0.03  -0.04
  26   1    -0.00   0.01  -0.01    -0.02   0.01  -0.01     0.02  -0.03   0.02
  27   1     0.01  -0.07  -0.08    -0.03   0.00  -0.00    -0.00   0.12   0.14
  28   1     0.00  -0.02  -0.01    -0.02  -0.01   0.02     0.00   0.04   0.01
  29   1     0.04   0.01  -0.08    -0.01  -0.00   0.01    -0.08  -0.03   0.13
  30   1     0.01   0.02   0.01     0.01  -0.00  -0.03    -0.01  -0.02   0.01
  31   1     0.00   0.00  -0.01    -0.01   0.00  -0.02     0.01  -0.02   0.01
  32   1    -0.01   0.02  -0.02     0.01  -0.01  -0.00     0.01  -0.00   0.01
  33   1    -0.02   0.01  -0.01     0.01  -0.01   0.00     0.00  -0.01   0.00
  34   1    -0.02  -0.02  -0.01     0.00   0.01   0.01     0.00   0.02   0.01
  35   1    -0.04   0.01  -0.03     0.01   0.01   0.01     0.01   0.01   0.01
  36   1     0.01   0.02  -0.03     0.00   0.00   0.00     0.03   0.04   0.03
  37   1    -0.01  -0.00   0.00     0.01   0.00  -0.00     0.04  -0.01   0.02
  38   1    -0.01  -0.01   0.02    -0.00   0.00   0.00    -0.00   0.01  -0.01
  39   1     0.02   0.06   0.07    -0.00  -0.00  -0.00    -0.06  -0.10  -0.12
  40   1     0.05   0.06  -0.03    -0.00  -0.00   0.00    -0.11  -0.11   0.06
  41   1    -0.01  -0.01   0.01    -0.01  -0.00  -0.01     0.02   0.03  -0.03
  42   1     0.01  -0.01   0.01    -0.01  -0.00  -0.01    -0.03   0.03  -0.02
  43   8    -0.21  -0.21   0.21    -0.02   0.04  -0.06    -0.18  -0.09   0.04
  44   6    -0.03  -0.07   0.13    -0.03   0.02  -0.05    -0.07  -0.02   0.05
  45   8     0.03   0.07   0.10    -0.06  -0.01  -0.05    -0.02   0.06   0.03
  46   6     0.13  -0.21  -0.01    -0.04   0.06  -0.03     0.04  -0.00   0.01
  47   1     0.07  -0.10   0.03    -0.02   0.02  -0.01     0.03   0.00   0.03
  48   1     0.06  -0.07  -0.02    -0.02   0.02  -0.01     0.02   0.00  -0.02
  49   1     0.03  -0.04  -0.06    -0.01   0.02   0.00     0.00  -0.00  -0.00
  50   8     0.16   0.12   0.15    -0.01  -0.01  -0.00    -0.06   0.14   0.14
  51   8    -0.04   0.04   0.02    -0.03   0.06   0.11    -0.08   0.04   0.05
  52   6    -0.04   0.05   0.02    -0.05   0.12   0.10    -0.08   0.05   0.05
  53   8    -0.04   0.07   0.03    -0.01   0.24   0.14    -0.11   0.08   0.07
  54   6    -0.07   0.05  -0.03    -0.17   0.06  -0.05    -0.16   0.13  -0.13
  55   1    -0.01   0.01  -0.02    -0.04  -0.01  -0.05    -0.01   0.02  -0.08
  56   1    -0.03   0.02  -0.01    -0.09   0.04  -0.02    -0.08   0.06  -0.05
  57   1    -0.03   0.01  -0.01    -0.04   0.01  -0.02    -0.07   0.05  -0.05
                     25                     26                     27
                        a                      a                      a 
 Frequencies --   251.8864               262.7543               267.8727
 Red. masses --    42.9745                32.8439                 8.6386
 Frc consts  --     0.0000                 0.0000                 0.0000
 IR Inten    --    48.5178                53.4885                12.0869
 Raman Activ --     0.0000                 0.0000                 0.0000
 Depolar     --     0.0000                 0.0000                 0.0000
 Atom AN      X      Y      Z        X      Y      Z        X      Y      Z
   1  53    -0.43  -0.07  -0.29     0.22   0.36  -0.05    -0.02   0.11  -0.14
   2   6     0.10   0.07   0.14    -0.08  -0.13   0.13    -0.03  -0.10   0.11
   3   6     0.15   0.16   0.18    -0.01  -0.07   0.16     0.03  -0.04   0.14
   4   6     0.13   0.09   0.20    -0.13  -0.15   0.02    -0.06  -0.11   0.04
   5   6     0.15   0.20   0.19     0.05   0.02   0.05     0.07   0.04   0.06
   6   1     0.05   0.04   0.07     0.00  -0.02   0.06     0.01  -0.01   0.06
   7   6     0.18   0.10   0.18    -0.10  -0.06  -0.09    -0.05  -0.02  -0.04
   8   1     0.04   0.04   0.06    -0.05  -0.07  -0.00    -0.03  -0.05   0.01
   9   6     0.20   0.18   0.20    -0.01   0.01  -0.08     0.02   0.04  -0.02
  10   1     0.03   0.06   0.06     0.04   0.03   0.02     0.04   0.03   0.02
  11   1     0.05   0.02   0.03    -0.04  -0.02  -0.05    -0.03  -0.01  -0.03
  12   1     0.06   0.05   0.05     0.01   0.02  -0.04     0.01   0.03  -0.02
  13   1    -0.02  -0.01  -0.00    -0.01   0.00  -0.02    -0.01   0.01   0.00
  14   8    -0.03   0.01   0.04    -0.02   0.05   0.03    -0.03   0.00  -0.02
  15   7     0.01  -0.02   0.03    -0.00  -0.00  -0.01     0.02  -0.00   0.01
  16   6    -0.01   0.01   0.01    -0.01  -0.00  -0.00     0.06  -0.02   0.01
  17   6     0.03  -0.01   0.00     0.01  -0.00  -0.01    -0.03   0.02   0.01
  18   6    -0.03   0.04   0.02    -0.04   0.05   0.01     0.11  -0.09  -0.01
  19   6    -0.01  -0.01  -0.03    -0.05  -0.01   0.03     0.13  -0.08  -0.19
  20   6     0.01   0.01  -0.03     0.04  -0.04  -0.07    -0.05   0.06   0.17
  21   6     0.05  -0.02   0.01     0.04   0.01   0.02    -0.10   0.03  -0.03
  22   6    -0.01  -0.03  -0.01    -0.02  -0.02  -0.01     0.07   0.09   0.02
  23   6     0.12   0.07   0.00     0.06   0.02  -0.02    -0.15  -0.07   0.01
  24   6     0.02  -0.03   0.00     0.00   0.01  -0.00     0.02   0.06   0.02
  25   1    -0.01   0.03   0.03    -0.02   0.02   0.03     0.04  -0.05  -0.05
  26   1    -0.02   0.02  -0.01    -0.02   0.03  -0.01     0.07  -0.05   0.04
  27   1    -0.02  -0.02  -0.04    -0.08  -0.06  -0.08     0.19   0.09   0.14
  28   1    -0.02  -0.00   0.03    -0.07   0.01   0.13     0.16  -0.08  -0.33
  29   1     0.03   0.02  -0.02     0.10   0.04  -0.02    -0.23  -0.10  -0.02
  30   1     0.01   0.00  -0.03     0.02  -0.02  -0.06    -0.03   0.03   0.11
  31   1    -0.01   0.01  -0.01    -0.01   0.00  -0.02     0.02  -0.00   0.07
  32   1     0.01  -0.01   0.00     0.03  -0.03  -0.00    -0.07   0.05   0.01
  33   1     0.02  -0.01   0.01     0.02  -0.01   0.01    -0.05   0.05  -0.02
  34   1     0.03   0.00   0.00     0.02   0.02   0.01    -0.06  -0.02  -0.02
  35   1     0.00  -0.02  -0.00     0.01  -0.01   0.00    -0.03   0.05  -0.02
  36   1    -0.01  -0.02  -0.01    -0.02  -0.02  -0.00     0.07   0.08  -0.01
  37   1    -0.01   0.00  -0.01    -0.01   0.01  -0.01     0.05  -0.03   0.04
  38   1     0.03   0.02  -0.01     0.08   0.10   0.00    -0.24  -0.28  -0.04
  39   1     0.05   0.02   0.03     0.05  -0.07  -0.08    -0.12   0.18   0.20
  40   1     0.04   0.04  -0.02    -0.07  -0.01   0.05     0.20   0.01  -0.16
  41   1    -0.00  -0.02  -0.00    -0.01  -0.01  -0.01     0.02   0.05   0.02
  42   1     0.01  -0.01   0.00     0.00  -0.00  -0.00    -0.01   0.02   0.00
  43   8    -0.12  -0.09  -0.01    -0.41  -0.34   0.09    -0.13  -0.11   0.03
  44   6    -0.02  -0.04   0.00    -0.09  -0.15   0.09    -0.02  -0.04   0.04
  45   8     0.04  -0.02   0.00     0.11  -0.08   0.09     0.06  -0.01   0.03
  46   6     0.01  -0.03  -0.01     0.17  -0.19  -0.02     0.06  -0.07  -0.01
  47   1     0.01  -0.01   0.00     0.10  -0.10   0.04     0.03  -0.04   0.01
  48   1     0.00  -0.00  -0.01     0.06  -0.04  -0.04     0.02  -0.02  -0.01
  49   1     0.01  -0.01  -0.01     0.06  -0.03  -0.05     0.02  -0.01  -0.02
  50   8    -0.05  -0.17  -0.22     0.04  -0.04  -0.16     0.08   0.08   0.03
  51   8     0.07  -0.06  -0.02    -0.05   0.02   0.01    -0.00  -0.01   0.01
  52   6     0.06  -0.04  -0.02    -0.06  -0.00   0.01    -0.01  -0.00   0.01
  53   8     0.09  -0.04  -0.03    -0.09  -0.06  -0.01    -0.01  -0.01   0.00
  54   6     0.11  -0.08   0.06    -0.05   0.07  -0.04    -0.01   0.01  -0.01
  55   1     0.01  -0.01   0.04     0.00   0.02  -0.03     0.00   0.00  -0.00
  56   1     0.05  -0.04   0.02    -0.01   0.03  -0.02    -0.01   0.00  -0.00
  57   1     0.04  -0.03   0.02    -0.03   0.04  -0.01    -0.01   0.00  -0.00
                     28                     29                     30
                        a                      a                      a 
 Frequencies --   278.2290               284.3497               295.7727
 Red. masses --    22.1139                 6.9730                11.1844
 Frc consts  --     0.0000                 0.0000                 0.0000
 IR Inten    --    13.2943                 6.1989                 7.0126
 Raman Activ --     0.0000                 0.0000                 0.0000
 Depolar     --     0.0000                 0.0000                 0.0000
 Atom AN      X      Y      Z        X      Y      Z        X      Y      Z
   1  53    -0.07  -0.08  -0.28     0.08  -0.01   0.03     0.06   0.01   0.13
   2   6    -0.07  -0.10   0.11    -0.02   0.01  -0.01     0.06   0.01  -0.04
   3   6    -0.01  -0.03   0.15    -0.03  -0.00  -0.01     0.03  -0.01  -0.05
   4   6    -0.10  -0.11   0.06    -0.02   0.00  -0.01     0.06   0.02  -0.03
   5   6     0.04   0.03   0.06    -0.02  -0.01  -0.01     0.01  -0.02  -0.02
   6   1     0.01  -0.01   0.07    -0.01   0.00  -0.00    -0.00   0.00  -0.02
   7   6    -0.06  -0.05  -0.03    -0.01  -0.01  -0.02     0.01   0.03   0.02
   8   1    -0.04  -0.05   0.01    -0.01   0.00  -0.00     0.02   0.01  -0.01
   9   6     0.03   0.01  -0.02    -0.00  -0.02  -0.02    -0.02   0.01   0.01
  10   1     0.03   0.02   0.02    -0.01  -0.00  -0.00     0.00  -0.01  -0.01
  11   1    -0.03  -0.02  -0.03    -0.00  -0.00  -0.00    -0.00   0.02   0.02
  12   1     0.02   0.01  -0.03     0.00  -0.01  -0.01    -0.02   0.01   0.01
  13   1     0.01   0.05   0.03     0.01   0.01  -0.00    -0.01   0.01  -0.03
  14   8    -0.09  -0.08  -0.17    -0.05  -0.04  -0.11     0.04   0.08  -0.09
  15   7     0.01   0.00  -0.02    -0.03   0.01  -0.05    -0.01   0.12  -0.10
  16   6    -0.01   0.01  -0.04    -0.07   0.03  -0.06    -0.02   0.10  -0.05
  17   6     0.01  -0.00   0.03     0.03  -0.05   0.01    -0.03   0.03  -0.06
  18   6     0.01  -0.05  -0.06    -0.15   0.13  -0.04     0.11  -0.05  -0.06
  19   6     0.09   0.06  -0.07    -0.14   0.13   0.24     0.17   0.22  -0.06
  20   6    -0.06  -0.01   0.07     0.07  -0.10  -0.23    -0.20   0.11   0.29
  21   6    -0.05  -0.06  -0.06     0.17  -0.09   0.08     0.05  -0.05  -0.05
  22   6    -0.03  -0.07   0.07    -0.09  -0.17   0.04    -0.26  -0.24   0.05
  23   6     0.16   0.19   0.09     0.22   0.22   0.08     0.07   0.04  -0.14
  24   6     0.02  -0.17   0.06    -0.02  -0.09  -0.04     0.13  -0.27   0.15
  25   1     0.03   0.00  -0.02    -0.06   0.08   0.06     0.09   0.01  -0.04
  26   1    -0.00  -0.02  -0.01    -0.09   0.07  -0.06     0.02  -0.04   0.00
  27   1    -0.02  -0.08  -0.12     0.01   0.20   0.20     0.13   0.09   0.06
  28   1    -0.04   0.07   0.11     0.02   0.03  -0.07     0.08   0.09  -0.12
  29   1     0.18   0.09  -0.06    -0.18  -0.10   0.17    -0.03   0.03   0.01
  30   1    -0.02  -0.00   0.02    -0.01  -0.05  -0.07    -0.05   0.04   0.09
  31   1    -0.01   0.00   0.04     0.02  -0.07  -0.11    -0.03   0.08   0.16
  32   1    -0.03  -0.02   0.02     0.08   0.01  -0.07    -0.14  -0.02   0.09
  33   1    -0.02   0.02  -0.04     0.08  -0.10   0.04     0.00  -0.00  -0.01
  34   1    -0.03  -0.05  -0.05     0.10   0.03   0.05     0.04  -0.03  -0.07
  35   1    -0.07  -0.05  -0.04     0.00  -0.08   0.01    -0.01  -0.15   0.01
  36   1     0.04   0.04   0.02    -0.06  -0.07   0.02    -0.15  -0.12   0.04
  37   1    -0.01  -0.07   0.10    -0.06  -0.02   0.02    -0.14  -0.01   0.02
  38   1     0.09   0.10   0.05    -0.07  -0.12  -0.00     0.06   0.08  -0.04
  39   1     0.09   0.02   0.03     0.08   0.21   0.27     0.06  -0.04  -0.08
  40   1    -0.00   0.09   0.03     0.24   0.18  -0.18    -0.03   0.01  -0.01
  41   1    -0.04  -0.07   0.05    -0.03  -0.07  -0.04    -0.03  -0.11   0.10
  42   1     0.06  -0.08   0.04     0.01  -0.03  -0.00     0.13  -0.13   0.07
  43   8     0.08   0.07   0.03    -0.03  -0.02   0.01    -0.09  -0.05  -0.01
  44   6     0.02   0.04   0.04    -0.00  -0.00   0.01    -0.03  -0.02  -0.00
  45   8    -0.03   0.05   0.03     0.02   0.01   0.00     0.01  -0.01  -0.00
  46   6     0.00  -0.00   0.02     0.01  -0.01   0.00     0.01  -0.00  -0.01
  47   1    -0.00   0.00   0.00     0.00  -0.01   0.00     0.01  -0.00   0.00
  48   1     0.01  -0.01   0.01     0.00  -0.00   0.00     0.00   0.00  -0.01
  49   1    -0.01  -0.00  -0.00     0.01  -0.00  -0.00     0.01   0.00  -0.00
  50   8     0.15   0.45   0.39    -0.04   0.04   0.02    -0.18  -0.09  -0.14
  51   8     0.01  -0.02   0.02    -0.02   0.01  -0.00    -0.02   0.02  -0.00
  52   6     0.01   0.01   0.02    -0.01   0.00  -0.00    -0.01   0.01  -0.00
  53   8     0.02   0.04   0.02    -0.02  -0.01  -0.00    -0.02   0.00   0.00
  54   6    -0.01  -0.00   0.01    -0.02   0.01  -0.02    -0.02   0.02  -0.03
  55   1    -0.01  -0.01  -0.00     0.00   0.00  -0.01     0.00   0.00  -0.01
  56   1    -0.01   0.00  -0.00    -0.01   0.00  -0.00    -0.01   0.01  -0.01
  57   1     0.00  -0.00   0.01    -0.01   0.01  -0.01    -0.01   0.01  -0.01
                     31                     32                     33
                        a                      a                      a 
 Frequencies --   303.3764               309.5817               329.9477
 Red. masses --     7.5296                10.1337                 6.3211
 Frc consts  --     0.0000                 0.0000                 0.0000
 IR Inten    --     5.1857                23.1279                 7.8466
 Raman Activ --     0.0000                 0.0000                 0.0000
 Depolar     --     0.0000                 0.0000                 0.0000
 Atom AN      X      Y      Z        X      Y      Z        X      Y      Z
   1  53     0.03   0.02   0.05    -0.10   0.09   0.04     0.07   0.05   0.02
   2   6     0.01   0.01  -0.01     0.01  -0.01   0.01     0.01   0.02  -0.01
   3   6     0.01   0.01  -0.01     0.01  -0.02   0.01    -0.00   0.00  -0.02
   4   6     0.02   0.01  -0.01     0.01  -0.02  -0.01     0.01   0.02  -0.01
   5   6     0.00   0.00  -0.01     0.02  -0.01  -0.00    -0.01  -0.01  -0.01
   6   1     0.00   0.00  -0.01     0.01  -0.01   0.00    -0.00   0.00  -0.01
   7   6     0.01   0.01   0.00    -0.01  -0.00  -0.00     0.01   0.01   0.00
   8   1     0.01   0.00  -0.00     0.01  -0.01  -0.00     0.01   0.01  -0.00
   9   6    -0.00   0.01   0.00    -0.02   0.01   0.00    -0.00  -0.00   0.00
  10   1     0.00  -0.00  -0.00     0.01  -0.00  -0.00    -0.00  -0.00  -0.00
  11   1     0.00   0.00   0.00    -0.01   0.00  -0.00     0.00   0.00   0.00
  12   1    -0.00   0.00   0.00    -0.01   0.01   0.00    -0.00  -0.00   0.00
  13   1     0.01   0.00   0.00     0.01  -0.01   0.03     0.00  -0.03   0.03
  14   8    -0.10  -0.10  -0.10     0.02  -0.16  -0.05    -0.04  -0.12   0.09
  15   7    -0.03   0.01   0.04     0.10  -0.08   0.05    -0.09  -0.04   0.11
  16   6    -0.03   0.07  -0.06     0.04   0.04   0.01    -0.07   0.07   0.01
  17   6     0.00  -0.06   0.11     0.07  -0.14   0.04    -0.03  -0.01   0.02
  18   6     0.02  -0.12  -0.16     0.05  -0.13  -0.14    -0.10   0.10   0.04
  19   6     0.11   0.20  -0.00     0.04   0.13   0.20     0.07   0.17   0.04
  20   6     0.01   0.09  -0.13    -0.07   0.33   0.03     0.06   0.01  -0.16
  21   6    -0.22  -0.13  -0.13     0.01  -0.12  -0.03    -0.23  -0.03  -0.13
  22   6     0.28   0.08   0.21    -0.14  -0.14  -0.15     0.15   0.11   0.03
  23   6    -0.06   0.06   0.30     0.02  -0.02   0.24     0.05  -0.03  -0.07
  24   6    -0.07  -0.12  -0.06    -0.04   0.15  -0.31    -0.01  -0.21   0.17
  25   1     0.03  -0.05  -0.10     0.00  -0.10  -0.11    -0.01   0.08   0.06
  26   1     0.02  -0.08   0.00     0.04  -0.09   0.02    -0.08   0.05  -0.03
  27   1     0.04   0.03  -0.01     0.03   0.10   0.11     0.07   0.08   0.07
  28   1     0.01   0.12   0.02     0.02   0.08   0.01     0.04   0.07  -0.06
  29   1     0.09   0.06   0.01    -0.02  -0.03   0.11    -0.02   0.01   0.04
  30   1     0.01   0.03  -0.04     0.03   0.14   0.05    -0.00  -0.01  -0.03
  31   1    -0.01   0.02  -0.06    -0.04   0.11  -0.00     0.02  -0.05  -0.09
  32   1     0.02   0.04  -0.04    -0.07   0.11  -0.02     0.07   0.05  -0.06
  33   1    -0.08   0.05  -0.10     0.02  -0.05  -0.02    -0.12   0.10  -0.07
  34   1    -0.14  -0.11  -0.06    -0.02  -0.02   0.04    -0.12  -0.10  -0.11
  35   1     0.32   0.08   0.25    -0.20  -0.06  -0.16    -0.25   0.03  -0.18
  36   1    -0.12  -0.13   0.15     0.10   0.05  -0.12     0.31   0.28  -0.06
  37   1     0.12   0.16  -0.21    -0.07  -0.12   0.12     0.11  -0.21   0.27
  38   1    -0.00  -0.01   0.14     0.08   0.06   0.12     0.04   0.04  -0.03
  39   1    -0.04   0.05   0.10     0.01  -0.06   0.00     0.04  -0.05  -0.06
  40   1    -0.04   0.06   0.07    -0.10   0.00   0.12    -0.01  -0.03   0.01
  41   1    -0.03  -0.03   0.01     0.08   0.09  -0.16    -0.09  -0.10   0.12
  42   1     0.00  -0.03   0.01    -0.12   0.12  -0.11     0.10  -0.12   0.08
  43   8    -0.03  -0.02   0.00    -0.00  -0.01   0.00     0.01   0.00  -0.00
  44   6    -0.00  -0.01  -0.00     0.02  -0.00  -0.01     0.01   0.00  -0.01
  45   8     0.02  -0.01  -0.00     0.03  -0.01   0.00     0.01  -0.01  -0.01
  46   6     0.00  -0.01  -0.01     0.01  -0.02  -0.01    -0.00   0.01  -0.00
  47   1     0.00  -0.01  -0.00     0.00  -0.00  -0.00    -0.00   0.01  -0.00
  48   1     0.00  -0.00  -0.00     0.00  -0.01  -0.00    -0.00   0.00   0.00
  49   1     0.00  -0.00  -0.00    -0.00  -0.00  -0.01    -0.00   0.00   0.00
  50   8    -0.06  -0.09  -0.12     0.16  -0.09  -0.03    -0.03  -0.17  -0.10
  51   8    -0.01   0.01  -0.01     0.00  -0.00  -0.01    -0.00   0.00  -0.00
  52   6    -0.01  -0.00  -0.01    -0.01  -0.01  -0.01    -0.00  -0.01  -0.00
  53   8    -0.01  -0.02  -0.01    -0.02  -0.02  -0.01    -0.00  -0.01  -0.00
  54   6    -0.00   0.01  -0.01     0.01  -0.00   0.02     0.00   0.00  -0.00
  55   1     0.00   0.01  -0.00    -0.00   0.00   0.01     0.00   0.00  -0.00
  56   1     0.00   0.00  -0.00     0.01  -0.00   0.00     0.00   0.00  -0.00
  57   1    -0.00   0.00  -0.00     0.00  -0.00   0.01    -0.00   0.00   0.00
                     34                     35                     36
                        a                      a                      a 
 Frequencies --   338.6867               359.9794               367.0749
 Red. masses --     7.5299                12.4754                 4.0239
 Frc consts  --     0.0000                 0.0000                 0.0000
 IR Inten    --    14.4064                30.8369                 0.9643
 Raman Activ --     0.0000                 0.0000                 0.0000
 Depolar     --     0.0000                 0.0000                 0.0000
 Atom AN      X      Y      Z        X      Y      Z        X      Y      Z
   1  53    -0.04   0.03  -0.11     0.05   0.01   0.09     0.01   0.02  -0.01
   2   6    -0.02  -0.03   0.02     0.03   0.01  -0.01    -0.03   0.01   0.00
   3   6    -0.01  -0.01   0.04    -0.00   0.01  -0.01     0.03  -0.02  -0.02
   4   6    -0.02  -0.04   0.01     0.05  -0.00  -0.02    -0.03   0.01   0.01
   5   6     0.02   0.00   0.01     0.04  -0.02  -0.02    -0.03   0.02   0.01
   6   1    -0.01   0.00   0.02    -0.02   0.01  -0.00     0.04  -0.02  -0.01
   7   6    -0.03  -0.01  -0.01    -0.01   0.03   0.01     0.04  -0.04  -0.02
   8   1    -0.01  -0.02   0.00     0.02  -0.01  -0.01    -0.01   0.01   0.01
   9   6     0.01   0.00  -0.01    -0.01   0.01   0.01    -0.01   0.00   0.00
  10   1     0.01   0.00   0.00     0.02  -0.01  -0.01    -0.02   0.01   0.01
  11   1    -0.01  -0.00  -0.01    -0.01   0.02   0.01     0.03  -0.02  -0.01
  12   1     0.01   0.00  -0.01    -0.01   0.01   0.01    -0.01   0.00   0.00
  13   1    -0.01  -0.03   0.03     0.01   0.00  -0.01    -0.00  -0.03   0.01
  14   8    -0.06  -0.11   0.17    -0.30  -0.35  -0.48    -0.10  -0.23  -0.10
  15   7    -0.04  -0.16   0.12    -0.05  -0.02  -0.03    -0.05  -0.10   0.03
  16   6    -0.00  -0.03   0.09     0.04  -0.01   0.04     0.03   0.04   0.01
  17   6    -0.06  -0.07  -0.03    -0.03  -0.03   0.05    -0.05  -0.10  -0.03
  18   6    -0.07   0.09   0.13     0.04   0.03   0.08     0.00   0.14   0.06
  19   6     0.09   0.00   0.04    -0.06  -0.07   0.04    -0.01   0.06   0.10
  20   6     0.03   0.16  -0.09    -0.09   0.01   0.24    -0.02   0.09   0.09
  21   6    -0.05  -0.05  -0.00     0.04   0.01   0.13    -0.07  -0.02   0.01
  22   6    -0.09   0.08  -0.23     0.14   0.19  -0.08     0.06   0.06  -0.14
  23   6     0.09  -0.05  -0.15     0.19   0.05  -0.07     0.05  -0.07  -0.10
  24   6     0.03  -0.06   0.08     0.03   0.10   0.06     0.06   0.05   0.06
  25   1    -0.03   0.06   0.10     0.00   0.00   0.03    -0.00   0.07   0.07
  26   1    -0.07   0.06  -0.01     0.02   0.02   0.02    -0.03   0.07  -0.02
  27   1     0.14   0.11   0.17    -0.06  -0.05  -0.04    -0.01   0.05   0.04
  28   1     0.11  -0.01  -0.19    -0.04  -0.04   0.08    -0.00   0.01   0.03
  29   1    -0.16  -0.09   0.07     0.02   0.02  -0.02    -0.00  -0.01   0.05
  30   1    -0.02   0.08   0.12    -0.12   0.01   0.26     0.22   0.03  -0.37
  31   1     0.04  -0.08  -0.12     0.09  -0.13   0.04    -0.21   0.40   0.20
  32   1     0.02   0.20  -0.13    -0.08   0.16  -0.05    -0.05  -0.39   0.30
  33   1    -0.03  -0.00   0.02     0.02  -0.03   0.07    -0.05   0.02   0.02
  34   1    -0.01  -0.03  -0.02     0.04   0.03   0.05    -0.04  -0.03  -0.01
  35   1     0.14   0.09   0.09     0.01   0.12  -0.00     0.04   0.08   0.01
  36   1    -0.17  -0.16  -0.07     0.08   0.07  -0.05    -0.00  -0.02  -0.06
  37   1    -0.05   0.19  -0.28     0.08   0.03  -0.05     0.03   0.05  -0.11
  38   1     0.12   0.15  -0.06     0.05   0.05  -0.07    -0.03  -0.05  -0.06
  39   1     0.09  -0.15  -0.17     0.11  -0.01   0.01     0.03   0.01   0.03
  40   1    -0.10  -0.05   0.06     0.07   0.03  -0.04     0.08  -0.00  -0.08
  41   1    -0.01  -0.03   0.03     0.03   0.04  -0.01     0.01   0.01   0.02
  42   1     0.03  -0.03   0.03    -0.02   0.05   0.01     0.02   0.02   0.03
  43   8     0.04   0.02   0.01    -0.02   0.00   0.00     0.02   0.01  -0.01
  44   6     0.02   0.01   0.01    -0.00   0.01  -0.01     0.02   0.00  -0.01
  45   8     0.01  -0.00   0.01     0.02   0.01  -0.00     0.02   0.00  -0.01
  46   6     0.00  -0.02   0.00    -0.01   0.01  -0.02     0.00  -0.00  -0.00
  47   1     0.00  -0.00  -0.00    -0.00  -0.00  -0.00    -0.00   0.00  -0.00
  48   1     0.01  -0.01   0.00    -0.00  -0.00  -0.00    -0.00  -0.00   0.00
  49   1    -0.01  -0.01  -0.01    -0.00   0.00  -0.01    -0.00  -0.00  -0.00
  50   8     0.19   0.12   0.13    -0.15  -0.07  -0.12     0.07  -0.01   0.05
  51   8     0.02  -0.02   0.01    -0.03   0.02  -0.01    -0.01   0.01   0.00
  52   6    -0.00  -0.00   0.01    -0.01  -0.00  -0.01    -0.01  -0.00   0.00
  53   8     0.00   0.00   0.00    -0.01  -0.03  -0.01    -0.01  -0.01  -0.01
  54   6     0.00  -0.00   0.01    -0.01   0.02  -0.03    -0.01   0.00   0.00
  55   1    -0.00   0.00   0.01     0.01   0.00  -0.01     0.00   0.00  -0.00
  56   1     0.00  -0.00   0.00    -0.00   0.01  -0.01    -0.00  -0.00   0.00
  57   1     0.00  -0.00   0.00    -0.01   0.01  -0.01    -0.01   0.00  -0.00
                     37                     38                     39
                        a                      a                      a 
 Frequencies --   386.6087               400.3656               408.5097
 Red. masses --     9.6450                10.1354                 9.1079
 Frc consts  --     0.0000                 0.0000                 0.0000
 IR Inten    --    43.1990                62.3177                 0.1006
 Raman Activ --     0.0000                 0.0000                 0.0000
 Depolar     --     0.0000                 0.0000                 0.0000
 Atom AN      X      Y      Z        X      Y      Z        X      Y      Z
   1  53     0.12  -0.03  -0.05     0.12  -0.02  -0.04    -0.01  -0.00  -0.02
   2   6     0.02  -0.00  -0.01     0.01  -0.00  -0.01    -0.05   0.05   0.01
   3   6    -0.02   0.01   0.00     0.02  -0.01  -0.02    -0.38   0.27   0.14
   4   6     0.01   0.01  -0.00    -0.02   0.03   0.01     0.37  -0.23  -0.13
   5   6     0.00  -0.00  -0.01    -0.03   0.02   0.00     0.29  -0.20  -0.09
   6   1    -0.01   0.01   0.00     0.01  -0.01  -0.01    -0.20   0.13   0.07
   7   6    -0.01   0.02   0.01     0.02  -0.01  -0.01    -0.27   0.19   0.12
   8   1     0.00   0.00  -0.00    -0.01   0.02   0.01     0.22  -0.15  -0.08
   9   6     0.01  -0.01  -0.01     0.01  -0.00  -0.00    -0.00   0.00   0.03
  10   1     0.00  -0.00  -0.00    -0.02   0.01   0.00     0.20  -0.14  -0.07
  11   1    -0.01   0.01   0.00     0.01  -0.01  -0.00    -0.17   0.12   0.07
  12   1     0.01  -0.00  -0.00     0.00  -0.00  -0.00     0.00  -0.00   0.01
  13   1    -0.02  -0.01   0.01    -0.02   0.01   0.00    -0.01  -0.00   0.00
  14   8    -0.17   0.09   0.21    -0.16   0.09   0.16     0.03   0.01   0.06
  15   7    -0.17  -0.01   0.10    -0.15   0.00   0.07    -0.01  -0.02   0.00
  16   6     0.03   0.05   0.20    -0.16  -0.05  -0.00    -0.03   0.01  -0.03
  17   6    -0.06  -0.13  -0.08    -0.07  -0.03   0.13     0.01  -0.03  -0.00
  18   6    -0.01  -0.01   0.12     0.06  -0.26   0.04     0.03   0.00   0.00
  19   6     0.19   0.10   0.11     0.13   0.03  -0.21    -0.01   0.04  -0.00
  20   6     0.11   0.21   0.02    -0.07  -0.05  -0.19    -0.02  -0.05  -0.04
  21   6    -0.03  -0.14  -0.08     0.07  -0.09   0.24    -0.01   0.01   0.02
  22   6    -0.06  -0.11  -0.13    -0.01   0.15  -0.00     0.02  -0.00  -0.04
  23   6    -0.03  -0.14  -0.14     0.22   0.08  -0.01     0.02  -0.02   0.01
  24   6     0.09  -0.01  -0.11    -0.11   0.04   0.02     0.01   0.03   0.03
  25   1    -0.01   0.01   0.05     0.06  -0.14  -0.14     0.02  -0.00  -0.02
  26   1    -0.06  -0.02   0.02     0.11  -0.15   0.12     0.02  -0.01   0.01
  27   1    -0.02  -0.15  -0.13     0.16  -0.02   0.02     0.00   0.01   0.00
  28   1    -0.03   0.08   0.22     0.08   0.07  -0.19    -0.01   0.03  -0.00
  29   1     0.28   0.16  -0.06    -0.03   0.01  -0.07     0.01   0.00   0.01
  30   1     0.03   0.10   0.09     0.05  -0.02  -0.17     0.01  -0.03  -0.07
  31   1     0.02  -0.00  -0.07    -0.10   0.06  -0.05    -0.03   0.03   0.02
  32   1     0.04   0.15  -0.05     0.02  -0.10   0.02     0.00  -0.08   0.03
  33   1    -0.03  -0.02  -0.00     0.07  -0.13   0.10    -0.01   0.01   0.01
  34   1    -0.02  -0.05  -0.03     0.09   0.06   0.12    -0.01  -0.00   0.01
  35   1    -0.02  -0.03  -0.03    -0.07   0.09  -0.01     0.00   0.01  -0.01
  36   1    -0.02  -0.05  -0.05     0.06   0.07  -0.05     0.01  -0.00  -0.02
  37   1    -0.03  -0.01  -0.04     0.02   0.01   0.02     0.01   0.00  -0.02
  38   1    -0.14  -0.20  -0.08     0.10   0.13  -0.05     0.00  -0.01   0.01
  39   1    -0.03   0.11   0.15     0.16  -0.07  -0.01     0.01  -0.00   0.01
  40   1     0.18   0.01  -0.19     0.02   0.04   0.01     0.01   0.00  -0.00
  41   1     0.07   0.02  -0.07     0.06   0.06  -0.06     0.01   0.01   0.01
  42   1    -0.03   0.03  -0.05    -0.12   0.07  -0.02    -0.00   0.01   0.01
  43   8     0.01   0.00   0.00     0.01  -0.01   0.00    -0.02   0.00  -0.01
  44   6    -0.01   0.00   0.00    -0.00  -0.00  -0.00    -0.00   0.01  -0.00
  45   8    -0.02  -0.00  -0.00    -0.01   0.01  -0.01    -0.03   0.00  -0.01
  46   6    -0.00   0.01   0.01    -0.00   0.01   0.01    -0.01   0.01  -0.01
  47   1    -0.00   0.00   0.00    -0.00   0.01   0.00    -0.01   0.00  -0.01
  48   1    -0.00   0.01   0.00    -0.00   0.01   0.00    -0.00  -0.00  -0.00
  49   1     0.00   0.00   0.01    -0.00   0.00   0.01    -0.01   0.00  -0.00
  50   8    -0.25   0.07   0.01    -0.30   0.08  -0.00     0.01   0.01   0.02
  51   8    -0.01   0.00   0.02    -0.01   0.01   0.01    -0.00  -0.03  -0.00
  52   6     0.01   0.00   0.02     0.01   0.00   0.02     0.01  -0.02   0.00
  53   8     0.03  -0.00   0.01     0.03  -0.00   0.00     0.02  -0.02  -0.00
  54   6    -0.01   0.01  -0.02    -0.01   0.01  -0.02     0.02  -0.00  -0.02
  55   1     0.01  -0.00  -0.02     0.01  -0.00  -0.01     0.01  -0.00  -0.01
  56   1    -0.02   0.01  -0.01    -0.01   0.01  -0.01     0.01   0.00  -0.01
  57   1    -0.01   0.01  -0.01    -0.01   0.00  -0.01     0.00   0.00  -0.01
                     40                     41                     42
                        a                      a                      a 
 Frequencies --   424.2046               441.3756               454.6520
 Red. masses --     8.7080                10.7450                11.3425
 Frc consts  --     0.0000                 0.0000                 0.0000
 IR Inten    --     2.0811                24.9315                49.3034
 Raman Activ --     0.0000                 0.0000                 0.0000
 Depolar     --     0.0000                 0.0000                 0.0000
 Atom AN      X      Y      Z        X      Y      Z        X      Y      Z
   1  53    -0.01  -0.00  -0.01    -0.06   0.06  -0.03    -0.08   0.06   0.02
   2   6     0.04  -0.03  -0.01    -0.07   0.04   0.03     0.51  -0.34  -0.17
   3   6     0.04  -0.03  -0.01     0.04  -0.02  -0.01    -0.12   0.05   0.05
   4   6    -0.05   0.03   0.02    -0.00  -0.01   0.00    -0.07   0.03   0.01
   5   6    -0.04   0.03   0.01     0.02  -0.01  -0.00    -0.21   0.13   0.07
   6   1     0.01  -0.01  -0.00     0.02  -0.01  -0.01    -0.11   0.06   0.05
   7   6     0.01  -0.01  -0.01     0.04  -0.03  -0.01    -0.24   0.15   0.06
   8   1    -0.03   0.02   0.01     0.01  -0.01  -0.00    -0.09   0.06   0.03
   9   6     0.02  -0.01  -0.01    -0.05   0.03   0.02     0.31  -0.23  -0.14
  10   1    -0.03   0.02   0.01     0.02  -0.01  -0.00    -0.16   0.11   0.06
  11   1     0.01  -0.01  -0.01     0.03  -0.02  -0.01    -0.18   0.12   0.06
  12   1     0.01  -0.01  -0.01    -0.03   0.02   0.01     0.17  -0.12  -0.07
  13   1    -0.00   0.02   0.02    -0.01  -0.05   0.05    -0.00  -0.01   0.01
  14   8     0.07   0.12   0.14     0.17  -0.25   0.09     0.03  -0.09   0.01
  15   7     0.00  -0.00  -0.01    -0.05  -0.06   0.04    -0.01  -0.03   0.01
  16   6    -0.15   0.14  -0.16    -0.15   0.10  -0.07    -0.01   0.01  -0.01
  17   6     0.13  -0.25   0.02    -0.17   0.09  -0.05    -0.04   0.03  -0.02
  18   6     0.17   0.09  -0.01     0.06  -0.12  -0.05     0.01  -0.01  -0.01
  19   6    -0.19   0.23  -0.05     0.00   0.30   0.08     0.00   0.03   0.02
  20   6    -0.15  -0.25   0.04    -0.13  -0.06  -0.05    -0.02   0.00  -0.00
  21   6    -0.15   0.02   0.06     0.10   0.01   0.12     0.02   0.00   0.01
  22   6     0.04  -0.09  -0.33    -0.03   0.11   0.10     0.00   0.02   0.04
  23   6     0.16  -0.17   0.15    -0.11  -0.02  -0.28    -0.03   0.02  -0.05
  24   6     0.09   0.15   0.15    -0.05  -0.02   0.05    -0.00  -0.01  -0.00
  25   1     0.10   0.01  -0.09     0.07  -0.08  -0.14     0.01  -0.01  -0.02
  26   1     0.10  -0.01   0.05     0.09  -0.11   0.08     0.01  -0.01   0.01
  27   1    -0.08   0.07  -0.03    -0.03   0.02  -0.04    -0.00   0.01   0.00
  28   1    -0.08   0.09   0.03    -0.05   0.16   0.11    -0.01   0.02   0.01
  29   1    -0.00   0.05   0.00     0.15   0.10   0.02     0.02   0.01   0.01
  30   1    -0.17  -0.14   0.06    -0.09  -0.04   0.02     0.00  -0.00  -0.02
  31   1     0.08  -0.15   0.05     0.01  -0.07  -0.03    -0.01   0.02   0.01
  32   1    -0.03  -0.03  -0.01    -0.01   0.03  -0.04    -0.01  -0.02   0.01
  33   1    -0.11   0.12   0.00     0.08  -0.12   0.09     0.02  -0.03   0.02
  34   1    -0.14  -0.08   0.01     0.13   0.10   0.06     0.03   0.02   0.01
  35   1    -0.02   0.05  -0.06     0.03   0.03   0.05     0.01   0.00   0.01
  36   1     0.03  -0.09  -0.18    -0.03   0.05   0.07    -0.00   0.02   0.03
  37   1    -0.02   0.03  -0.14     0.03   0.01  -0.01     0.01  -0.00   0.01
  38   1     0.04  -0.09   0.07    -0.11  -0.06  -0.14    -0.02   0.00  -0.02
  39   1     0.04  -0.01   0.09    -0.03   0.04  -0.01    -0.01   0.01  -0.01
  40   1     0.05  -0.00   0.00     0.09  -0.02  -0.14     0.00   0.00  -0.02
  41   1     0.03   0.06   0.07    -0.00  -0.00   0.00    -0.00  -0.00  -0.00
  42   1     0.04   0.05   0.06    -0.01  -0.00   0.02     0.00  -0.00   0.00
  43   8     0.00   0.01  -0.01     0.00   0.03  -0.01     0.02  -0.01   0.03
  44   6    -0.00   0.00   0.00     0.02   0.02   0.00     0.01  -0.01  -0.02
  45   8    -0.00  -0.00   0.01     0.02  -0.02   0.02     0.01  -0.00  -0.02
  46   6     0.00  -0.00  -0.00     0.00  -0.02  -0.02    -0.01   0.01   0.00
  47   1     0.00  -0.00   0.00     0.00  -0.01  -0.01    -0.01   0.01  -0.00
  48   1     0.00  -0.00  -0.00     0.01  -0.02   0.00    -0.01   0.01   0.00
  49   1     0.00   0.00  -0.00    -0.00  -0.00  -0.02    -0.00   0.00   0.01
  50   8    -0.00   0.02   0.01     0.37  -0.18   0.08     0.07  -0.03  -0.01
  51   8     0.01  -0.01   0.00     0.07  -0.03  -0.04    -0.05   0.00   0.05
  52   6     0.00   0.01   0.00    -0.02   0.01  -0.05     0.02  -0.00   0.05
  53   8    -0.00   0.01   0.00    -0.10   0.04   0.00     0.11  -0.01  -0.01
  54   6    -0.00  -0.00   0.01     0.01  -0.02   0.06    -0.01   0.02  -0.05
  55   1    -0.00   0.00   0.01    -0.03   0.01   0.05     0.03  -0.01  -0.05
  56   1    -0.00  -0.00   0.00     0.03  -0.02   0.02    -0.03   0.02  -0.02
  57   1     0.00  -0.00   0.00     0.02  -0.02   0.03    -0.02   0.01  -0.02
                     43                     44                     45
                        a                      a                      a 
 Frequencies --   467.1906               474.5028               475.8014
 Red. masses --    12.6610                11.5492                 9.1976
 Frc consts  --     0.0000                 0.0000                 0.0000
 IR Inten    --    25.7134                32.5028                 0.2401
 Raman Activ --     0.0000                 0.0000                 0.0000
 Depolar     --     0.0000                 0.0000                 0.0000
 Atom AN      X      Y      Z        X      Y      Z        X      Y      Z
   1  53     0.03  -0.06   0.03     0.00  -0.07   0.06     0.00  -0.00  -0.01
   2   6     0.07  -0.02  -0.01     0.06  -0.04  -0.02     0.00   0.00   0.00
   3   6    -0.01   0.01   0.01    -0.02   0.01   0.01     0.02  -0.02  -0.01
   4   6     0.00   0.01  -0.01     0.01  -0.00  -0.00    -0.01   0.01   0.01
   5   6    -0.02   0.01   0.02    -0.02   0.01   0.01     0.00   0.00  -0.00
   6   1    -0.01   0.01   0.00    -0.02   0.01   0.01     0.01  -0.00  -0.00
   7   6    -0.02   0.02   0.01    -0.03   0.02   0.01     0.02  -0.01  -0.00
   8   1    -0.02   0.00  -0.00    -0.01   0.00   0.00    -0.01   0.00   0.00
   9   6     0.03  -0.03  -0.01     0.03  -0.02  -0.01    -0.01   0.01   0.00
  10   1    -0.02   0.01   0.01    -0.01   0.01   0.01    -0.00   0.00   0.00
  11   1    -0.02   0.02   0.01    -0.02   0.02   0.01     0.01  -0.00  -0.00
  12   1     0.02  -0.01  -0.01     0.02  -0.01  -0.01    -0.01   0.00   0.00
  13   1    -0.02   0.01   0.01     0.07   0.02  -0.06    -0.02  -0.03  -0.03
  14   8     0.06  -0.07   0.03     0.04   0.30  -0.22    -0.02  -0.01   0.05
  15   7    -0.02   0.01   0.04     0.16   0.08  -0.18    -0.09  -0.17  -0.15
  16   6     0.02   0.03   0.02     0.03  -0.18  -0.04    -0.16  -0.23  -0.05
  17   6    -0.00   0.00   0.02     0.09  -0.03   0.08     0.03  -0.06  -0.29
  18   6     0.01   0.01  -0.01    -0.15  -0.09  -0.02     0.00   0.00   0.27
  19   6    -0.03  -0.02  -0.03     0.20  -0.04   0.14     0.15  -0.02   0.08
  20   6     0.05  -0.00   0.01    -0.06   0.13  -0.09    -0.30   0.03  -0.10
  21   6    -0.00  -0.03  -0.02    -0.09   0.11   0.14     0.10   0.23  -0.02
  22   6    -0.02   0.01   0.01    -0.01   0.05  -0.13     0.27  -0.21  -0.04
  23   6     0.00  -0.00   0.02     0.11  -0.16  -0.02    -0.13   0.18   0.06
  24   6     0.03  -0.01  -0.04    -0.32  -0.05   0.20     0.08   0.14   0.12
  25   1    -0.00   0.01   0.00    -0.07  -0.05  -0.00    -0.00   0.02   0.11
  26   1    -0.01  -0.00  -0.01     0.02   0.02  -0.01     0.01   0.05   0.04
  27   1    -0.01  -0.00  -0.00     0.05  -0.04   0.02     0.11  -0.03   0.06
  28   1     0.00  -0.03  -0.02     0.02   0.06   0.08     0.03   0.13  -0.01
  29   1    -0.03  -0.00  -0.01     0.15  -0.01   0.05     0.10  -0.03   0.05
  30   1     0.01  -0.01  -0.01     0.06   0.10  -0.00    -0.03   0.06   0.02
  31   1     0.01   0.01   0.01    -0.08   0.07  -0.06    -0.11   0.03  -0.04
  32   1     0.02  -0.02   0.02    -0.05   0.05  -0.04    -0.14   0.02  -0.06
  33   1    -0.01   0.00  -0.01     0.01   0.01   0.00     0.01   0.03   0.05
  34   1    -0.01  -0.02  -0.01    -0.04   0.04   0.07     0.05   0.09   0.00
  35   1    -0.01  -0.00  -0.00    -0.04   0.07  -0.02     0.10  -0.10  -0.02
  36   1    -0.00   0.00   0.00     0.03  -0.02  -0.10     0.07   0.01   0.07
  37   1    -0.01   0.00   0.01    -0.01   0.04  -0.06     0.13  -0.12  -0.00
  38   1     0.00   0.01  -0.00    -0.02  -0.09  -0.03     0.03   0.02   0.15
  39   1     0.01  -0.01  -0.00     0.02  -0.00   0.04    -0.08   0.08   0.01
  40   1    -0.01  -0.00   0.01     0.10  -0.05  -0.04    -0.13   0.11   0.02
  41   1     0.01  -0.00  -0.02    -0.15  -0.04   0.10     0.04   0.08   0.06
  42   1    -0.00   0.01  -0.01    -0.02  -0.07   0.07    -0.01  -0.01  -0.03
  43   8    -0.17   0.42  -0.37    -0.03  -0.02  -0.00    -0.02   0.05  -0.04
  44   6    -0.06   0.23   0.13    -0.02  -0.01   0.01    -0.00   0.03   0.01
  45   8     0.11  -0.21   0.36    -0.01   0.01   0.00     0.01  -0.02   0.04
  46   6     0.08  -0.16  -0.22     0.01  -0.01   0.00     0.01  -0.02  -0.02
  47   1     0.10  -0.20  -0.01     0.01  -0.01   0.01     0.01  -0.02  -0.00
  48   1     0.09  -0.17  -0.04     0.00   0.00  -0.00     0.01  -0.02  -0.00
  49   1    -0.03   0.01  -0.31     0.01  -0.00   0.00    -0.01   0.00  -0.03
  50   8    -0.14   0.03   0.02     0.09  -0.01  -0.04    -0.04   0.00   0.01
  51   8     0.09  -0.05  -0.06     0.13  -0.07  -0.09    -0.02   0.01   0.01
  52   6    -0.01   0.04  -0.06    -0.02   0.06  -0.10     0.01  -0.01   0.02
  53   8    -0.14   0.09   0.04    -0.21   0.13   0.05     0.03  -0.02  -0.01
  54   6     0.01  -0.03   0.07     0.01  -0.04   0.11    -0.00   0.00  -0.01
  55   1    -0.05   0.01   0.07    -0.07   0.01   0.10     0.01  -0.00  -0.01
  56   1     0.03  -0.03   0.03     0.05  -0.05   0.05    -0.01   0.01  -0.01
  57   1     0.04  -0.03   0.03     0.06  -0.05   0.04    -0.01   0.01  -0.01
                     46                     47                     48
                        a                      a                      a 
 Frequencies --   478.3281               513.3113               522.6859
 Red. masses --    14.0205                15.0026                10.4239
 Frc consts  --     0.0000                 0.0000                 0.0000
 IR Inten    --    58.9371               126.9288                23.2644
 Raman Activ --     0.0000                 0.0000                 0.0000
 Depolar     --     0.0000                 0.0000                 0.0000
 Atom AN      X      Y      Z        X      Y      Z        X      Y      Z
   1  53    -0.12  -0.01   0.06     0.04  -0.07   0.03     0.02  -0.03  -0.00
   2   6    -0.07   0.05   0.03     0.03   0.00  -0.01     0.00   0.00  -0.00
   3   6     0.03  -0.02  -0.01    -0.01   0.01  -0.00     0.00   0.00  -0.00
   4   6    -0.01   0.01  -0.00     0.01   0.01  -0.03     0.00   0.00  -0.01
   5   6     0.02  -0.02  -0.00    -0.01  -0.01   0.01     0.00  -0.00  -0.00
   6   1     0.03  -0.02  -0.01    -0.00   0.01   0.01    -0.00   0.00   0.00
   7   6     0.04  -0.03  -0.01    -0.01   0.00   0.00     0.00  -0.00   0.00
   8   1     0.00  -0.01  -0.00    -0.00   0.01  -0.01    -0.00   0.00  -0.00
   9   6    -0.05   0.02   0.02    -0.00  -0.02  -0.00    -0.00   0.00   0.00
  10   1     0.02  -0.02  -0.01    -0.01  -0.00   0.00    -0.00  -0.00  -0.00
  11   1     0.03  -0.02  -0.01    -0.01   0.00   0.01     0.00  -0.00   0.00
  12   1    -0.02   0.01   0.01    -0.00  -0.00  -0.00    -0.00   0.00   0.00
  13   1     0.03   0.00  -0.01     0.16  -0.05   0.00     0.03  -0.05  -0.04
  14   8     0.07   0.08  -0.05    -0.57   0.33  -0.16    -0.13   0.36   0.18
  15   7     0.09   0.04  -0.06    -0.01   0.07   0.06    -0.07  -0.11  -0.14
  16   6     0.01  -0.04  -0.03    -0.12   0.07   0.11     0.19  -0.10  -0.24
  17   6     0.03   0.01   0.05     0.08   0.07   0.01    -0.31  -0.15  -0.03
  18   6    -0.06  -0.05  -0.05    -0.00  -0.03   0.14     0.13   0.15  -0.25
  19   6     0.06   0.02   0.06    -0.03   0.07  -0.10     0.01  -0.09   0.07
  20   6    -0.01   0.03  -0.04    -0.01  -0.05  -0.04    -0.01   0.05   0.08
  21   6    -0.03   0.05   0.07     0.07   0.04  -0.10    -0.14  -0.26   0.14
  22   6    -0.03   0.05  -0.04    -0.04  -0.02   0.01     0.06   0.05   0.09
  23   6     0.04  -0.09  -0.04     0.00   0.01   0.01    -0.03   0.14  -0.06
  24   6    -0.16  -0.04   0.09     0.11   0.01  -0.06     0.07   0.03  -0.01
  25   1    -0.02  -0.03  -0.03     0.02  -0.00   0.02     0.01   0.07  -0.00
  26   1     0.02  -0.01   0.00    -0.03  -0.04   0.05     0.03   0.10  -0.13
  27   1     0.00  -0.00  -0.00     0.04  -0.02  -0.02    -0.07   0.06   0.01
  28   1    -0.00   0.03   0.05     0.01   0.03  -0.07    -0.01  -0.04   0.07
  29   1     0.06   0.01   0.02    -0.03   0.05  -0.06     0.02  -0.09   0.08
  30   1     0.01   0.03   0.00    -0.01  -0.04  -0.06    -0.01   0.04   0.11
  31   1    -0.02   0.01  -0.03    -0.02  -0.02  -0.03     0.04   0.03   0.08
  32   1    -0.01   0.02  -0.02     0.06  -0.03   0.02    -0.13   0.02  -0.02
  33   1     0.02  -0.00   0.00     0.00   0.05  -0.04    -0.05  -0.11   0.10
  34   1    -0.01   0.02   0.04    -0.00  -0.02  -0.05     0.00  -0.04   0.04
  35   1    -0.02   0.04  -0.01    -0.01  -0.04  -0.02    -0.00   0.07   0.05
  36   1    -0.00  -0.01  -0.04    -0.03  -0.03  -0.00     0.06   0.10   0.06
  37   1    -0.02   0.03  -0.02    -0.05   0.01   0.03     0.12  -0.08  -0.01
  38   1    -0.02  -0.05  -0.04    -0.00  -0.01   0.01     0.03   0.12  -0.04
  39   1    -0.00  -0.00   0.01    -0.02   0.01  -0.02     0.10  -0.02   0.04
  40   1     0.06  -0.04  -0.03    -0.00  -0.02   0.02    -0.04   0.11  -0.06
  41   1    -0.08  -0.03   0.05     0.07   0.03  -0.03     0.02  -0.02  -0.05
  42   1    -0.00  -0.04   0.04    -0.02  -0.00  -0.06     0.02   0.09   0.07
  43   8    -0.05   0.14  -0.12    -0.02   0.05  -0.06     0.00   0.03  -0.04
  44   6    -0.01   0.09   0.04    -0.04   0.03   0.02    -0.03   0.01   0.02
  45   8     0.03  -0.06   0.12     0.00  -0.01   0.04    -0.01  -0.00   0.02
  46   6     0.02  -0.04  -0.07     0.01  -0.01  -0.02     0.00  -0.00  -0.01
  47   1     0.03  -0.06  -0.01     0.01  -0.02   0.00     0.01  -0.01   0.01
  48   1     0.03  -0.06  -0.01     0.01  -0.01  -0.01     0.00  -0.00  -0.01
  49   1    -0.02   0.01  -0.10    -0.00   0.01  -0.03     0.00   0.00  -0.02
  50   8     0.12   0.01  -0.04     0.40  -0.34   0.15     0.10  -0.13   0.07
  51   8    -0.29   0.16   0.18     0.02  -0.02   0.02     0.01  -0.01   0.01
  52   6     0.07  -0.13   0.21    -0.01  -0.01   0.01    -0.00  -0.00   0.01
  53   8     0.46  -0.27  -0.09     0.03   0.01  -0.03     0.03   0.00  -0.02
  54   6     0.01   0.06  -0.23    -0.01   0.00   0.01    -0.01   0.00   0.00
  55   1     0.16  -0.04  -0.22    -0.00   0.00   0.01    -0.00  -0.00  -0.00
  56   1    -0.10   0.10  -0.10     0.00  -0.00   0.00    -0.00   0.00   0.00
  57   1    -0.12   0.10  -0.10    -0.00   0.00   0.01    -0.00   0.00   0.00
                     49                     50                     51
                        a                      a                      a 
 Frequencies --   579.4200               583.7922               593.4043
 Red. masses --    12.2328                11.1853                10.1133
 Frc consts  --     0.0000                 0.0000                 0.0000
 IR Inten    --    32.6400                 0.1205                11.9741
 Raman Activ --     0.0000                 0.0000                 0.0000
 Depolar     --     0.0000                 0.0000                 0.0000
 Atom AN      X      Y      Z        X      Y      Z        X      Y      Z
   1  53     0.04   0.10  -0.11     0.00  -0.00  -0.00     0.01   0.04  -0.03
   2   6     0.01   0.02  -0.02    -0.02  -0.11   0.14     0.01  -0.00   0.00
   3   6     0.03   0.05  -0.00    -0.26  -0.36   0.00     0.01  -0.01  -0.00
   4   6    -0.01   0.01  -0.05     0.13  -0.04   0.41     0.00   0.00   0.00
   5   6     0.01  -0.00   0.05    -0.12   0.05  -0.45    -0.01   0.01  -0.00
   6   1     0.00   0.01  -0.01    -0.05  -0.10   0.05     0.00  -0.00  -0.00
   7   6    -0.04  -0.04   0.01     0.28   0.40  -0.01    -0.01   0.01   0.00
   8   1     0.01   0.01  -0.01    -0.01  -0.06   0.10     0.01  -0.00  -0.00
   9   6     0.00  -0.02   0.02     0.02   0.13  -0.14     0.01  -0.01  -0.01
  10   1    -0.00  -0.01   0.01     0.00   0.06  -0.11    -0.01   0.01   0.00
  11   1    -0.01  -0.01   0.01     0.05   0.11  -0.05    -0.00   0.00   0.00
  12   1     0.01   0.01  -0.01    -0.03  -0.07   0.07     0.01  -0.01  -0.00
  13   1    -0.10   0.00   0.04    -0.01  -0.00   0.00    -0.05   0.02   0.01
  14   8    -0.03  -0.03   0.02    -0.02   0.00   0.00     0.08   0.00  -0.04
  15   7    -0.06   0.04  -0.01    -0.00   0.00  -0.00     0.02   0.03  -0.04
  16   6     0.09   0.17   0.13     0.01   0.02   0.02    -0.02  -0.06  -0.03
  17   6    -0.01  -0.12  -0.19    -0.00  -0.01  -0.02     0.01   0.03   0.06
  18   6    -0.06  -0.02  -0.11    -0.01  -0.00  -0.02     0.01   0.00   0.04
  19   6    -0.05   0.00  -0.06    -0.01   0.00  -0.01     0.03  -0.03   0.03
  20   6     0.26   0.09   0.14     0.04   0.01   0.02    -0.08  -0.02  -0.04
  21   6    -0.02   0.11   0.05    -0.00   0.02   0.00    -0.00  -0.04  -0.01
  22   6     0.16  -0.20  -0.17     0.02  -0.02  -0.02    -0.05   0.06   0.05
  23   6    -0.03   0.08   0.02    -0.00   0.01   0.00     0.03  -0.04   0.02
  24   6    -0.28  -0.00   0.09    -0.03  -0.00   0.01     0.08  -0.00  -0.02
  25   1    -0.01  -0.09  -0.15    -0.00  -0.01  -0.02    -0.00   0.03   0.06
  26   1     0.07  -0.08   0.08     0.01  -0.01   0.01    -0.02   0.03  -0.03
  27   1    -0.03   0.01  -0.03    -0.01   0.00  -0.00     0.02  -0.01   0.01
  28   1     0.01  -0.10  -0.02     0.00  -0.01  -0.00     0.00   0.02   0.01
  29   1    -0.09   0.03  -0.05    -0.01   0.00  -0.01     0.03  -0.01   0.02
  30   1     0.06   0.01   0.02     0.01  -0.00  -0.00    -0.02   0.00  -0.00
  31   1     0.07   0.01   0.03     0.01   0.00   0.00    -0.03  -0.01  -0.01
  32   1     0.11   0.03   0.05     0.02  -0.00   0.01    -0.04  -0.00  -0.02
  33   1     0.06  -0.11   0.06     0.01  -0.01   0.01    -0.02   0.04  -0.02
  34   1     0.07   0.14   0.09     0.01   0.02   0.01    -0.03  -0.05  -0.03
  35   1     0.06  -0.05  -0.03     0.01  -0.01  -0.00    -0.02   0.02   0.02
  36   1     0.04  -0.04  -0.02     0.00  -0.00  -0.00    -0.02   0.01   0.00
  37   1     0.07  -0.07  -0.07     0.01  -0.01  -0.01    -0.02   0.03   0.01
  38   1     0.04   0.02   0.09     0.00   0.00   0.01    -0.01  -0.01  -0.02
  39   1    -0.01   0.03   0.01    -0.00   0.00   0.00     0.01  -0.01   0.00
  40   1    -0.08   0.08  -0.00    -0.01   0.01   0.00     0.03  -0.03   0.00
  41   1    -0.21  -0.07   0.13    -0.03  -0.01   0.02     0.06   0.02  -0.04
  42   1     0.07  -0.09   0.07     0.01  -0.01   0.01    -0.03   0.03  -0.02
  43   8     0.01   0.00  -0.03    -0.02  -0.00   0.00    -0.08  -0.06  -0.10
  44   6     0.01  -0.01   0.01     0.01   0.01  -0.00     0.23   0.09   0.02
  45   8    -0.02   0.03  -0.00    -0.00  -0.01   0.00    -0.14   0.05  -0.01
  46   6     0.01  -0.01   0.02    -0.00   0.00  -0.01     0.04  -0.04   0.08
  47   1    -0.00   0.00   0.00    -0.00   0.00  -0.01    -0.07   0.02  -0.05
  48   1     0.00  -0.00   0.01    -0.00  -0.00   0.00     0.02  -0.10   0.12
  49   1     0.00  -0.00   0.01    -0.00   0.00  -0.00    -0.05  -0.03   0.02
  50   8    -0.12  -0.29   0.32     0.00  -0.04   0.05    -0.08  -0.08   0.11
  51   8     0.05   0.01   0.03    -0.00   0.00   0.00     0.21   0.15   0.09
  52   6    -0.08  -0.08  -0.01    -0.00  -0.00   0.00    -0.37  -0.48  -0.13
  53   8     0.05   0.02  -0.04     0.01  -0.00  -0.00     0.16   0.19  -0.04
  54   6    -0.03   0.01   0.01    -0.00   0.00   0.00    -0.09   0.01   0.03
  55   1     0.01   0.03   0.01     0.00   0.00  -0.00     0.05   0.13   0.05
  56   1     0.04  -0.00  -0.01    -0.00   0.00  -0.00     0.27  -0.02  -0.06
  57   1    -0.04   0.04   0.03    -0.00   0.00   0.00    -0.20   0.21   0.13
                     52                     53                     54
                        a                      a                      a 
 Frequencies --   596.9022               609.1335               616.5246
 Red. masses --    10.0543                17.4851                12.9314
 Frc consts  --     0.0000                 0.0000                 0.0000
 IR Inten    --    31.5528               174.6233                56.7699
 Raman Activ --     0.0000                 0.0000                 0.0000
 Depolar     --     0.0000                 0.0000                 0.0000
 Atom AN      X      Y      Z        X      Y      Z        X      Y      Z
   1  53    -0.02  -0.02  -0.00    -0.01   0.16  -0.14    -0.04  -0.07   0.07
   2   6     0.03   0.02   0.03     0.01   0.01   0.01    -0.02  -0.02  -0.02
   3   6    -0.02  -0.01   0.02     0.00  -0.01   0.01     0.01   0.00  -0.01
   4   6     0.02   0.02  -0.01     0.01   0.01  -0.00     0.00  -0.02   0.01
   5   6     0.00  -0.02   0.00    -0.00  -0.00   0.00    -0.01   0.01  -0.01
   6   1    -0.01  -0.00   0.00    -0.01  -0.00  -0.02     0.01   0.00   0.01
   7   6     0.02   0.02  -0.02     0.00   0.01  -0.00    -0.01  -0.01   0.01
   8   1    -0.02   0.00  -0.00     0.00   0.01   0.00    -0.00  -0.00   0.00
   9   6    -0.03  -0.01  -0.02    -0.00  -0.00  -0.01     0.02   0.00   0.01
  10   1     0.01  -0.00   0.00    -0.00   0.00   0.00    -0.01   0.00  -0.00
  11   1     0.00   0.01   0.00     0.00   0.00   0.00    -0.01  -0.00  -0.00
  12   1    -0.01  -0.00  -0.00    -0.00   0.00  -0.00     0.01   0.00   0.00
  13   1     0.01  -0.00   0.00    -0.20   0.06   0.04     0.13  -0.01  -0.05
  14   8    -0.01  -0.03   0.02     0.34   0.02  -0.18     0.22   0.10  -0.15
  15   7     0.00  -0.02   0.02     0.01   0.18  -0.18    -0.03   0.12  -0.11
  16   6     0.00  -0.01  -0.02    -0.07  -0.04   0.06    -0.06   0.13   0.19
  17   6     0.02   0.02   0.01    -0.05  -0.04   0.06    -0.16  -0.14  -0.10
  18   6     0.00   0.00  -0.01    -0.03  -0.04   0.18    -0.07  -0.06   0.22
  19   6     0.01   0.00   0.01     0.03  -0.04   0.01    -0.07   0.07  -0.09
  20   6    -0.01  -0.00  -0.01    -0.08  -0.02  -0.04     0.12   0.03   0.06
  21   6     0.01   0.02  -0.01    -0.06  -0.15   0.04    -0.12  -0.20   0.08
  22   6    -0.01   0.01   0.01    -0.06   0.06   0.04     0.08  -0.10  -0.06
  23   6     0.00  -0.01  -0.00     0.04  -0.03   0.04    -0.06   0.12  -0.04
  24   6     0.00   0.00  -0.00     0.09  -0.02  -0.01    -0.03  -0.03   0.03
  25   1     0.00   0.00  -0.00    -0.02   0.04   0.14    -0.01  -0.01   0.06
  26   1     0.00   0.00  -0.00    -0.07   0.04  -0.02    -0.05  -0.04   0.07
  27   1    -0.00   0.01   0.00     0.05  -0.05   0.01     0.02  -0.03  -0.02
  28   1    -0.00   0.01   0.00     0.01   0.02  -0.02     0.01  -0.02  -0.07
  29   1     0.01  -0.01   0.01     0.02   0.01  -0.02    -0.08   0.08  -0.09
  30   1    -0.00   0.00  -0.00    -0.02  -0.00  -0.01     0.02  -0.02  -0.02
  31   1    -0.00   0.00   0.00    -0.03  -0.02  -0.03     0.02  -0.01  -0.01
  32   1    -0.01  -0.00  -0.00    -0.00   0.01  -0.02     0.11   0.01   0.04
  33   1     0.00   0.01  -0.01    -0.06   0.05  -0.02    -0.05  -0.06   0.05
  34   1     0.00   0.00  -0.00    -0.07  -0.11  -0.04    -0.02  -0.05   0.02
  35   1    -0.00  -0.00  -0.00    -0.00   0.04   0.03     0.02  -0.00  -0.00
  36   1    -0.00  -0.00  -0.00    -0.02   0.01   0.01     0.04   0.02   0.01
  37   1    -0.01   0.01   0.01    -0.01   0.03  -0.02     0.08  -0.07  -0.04
  38   1    -0.00  -0.01  -0.00     0.01   0.02  -0.02     0.02   0.08   0.01
  39   1    -0.01   0.00  -0.01     0.05  -0.03   0.03     0.05   0.01   0.03
  40   1     0.01  -0.01   0.00     0.02   0.01  -0.01    -0.07   0.11  -0.04
  41   1    -0.00  -0.00   0.00     0.14   0.05  -0.09     0.07   0.03  -0.06
  42   1     0.01  -0.00  -0.00    -0.11   0.07  -0.04    -0.11   0.06  -0.02
  43   8     0.21   0.15   0.17     0.04   0.03  -0.01     0.00  -0.00  -0.01
  44   6    -0.57  -0.25  -0.02    -0.10  -0.08   0.01    -0.01  -0.01   0.01
  45   8     0.30  -0.03   0.02     0.04   0.04  -0.01    -0.01   0.01   0.00
  46   6    -0.09   0.07  -0.14    -0.00  -0.02   0.01     0.00  -0.01   0.01
  47   1     0.17  -0.06   0.15     0.04  -0.01   0.04     0.01  -0.01   0.01
  48   1    -0.04   0.24  -0.29    -0.01   0.05  -0.05     0.00   0.00  -0.00
  49   1     0.13   0.07  -0.03     0.03   0.00   0.02     0.00  -0.00   0.00
  50   8    -0.01   0.04  -0.02    -0.13  -0.40   0.43     0.22   0.14  -0.21
  51   8     0.10   0.07   0.05    -0.08  -0.04  -0.01    -0.16   0.20  -0.09
  52   6    -0.17  -0.22  -0.06     0.11   0.12   0.06     0.03  -0.19  -0.07
  53   8     0.08   0.09  -0.02    -0.02  -0.08  -0.02    -0.11   0.09   0.28
  54   6    -0.05   0.01   0.02     0.04  -0.00  -0.02     0.19  -0.11  -0.10
  55   1     0.02   0.06   0.02     0.00  -0.04  -0.03     0.08   0.00  -0.03
  56   1     0.12  -0.01  -0.03    -0.08   0.01   0.01     0.13  -0.04  -0.05
  57   1    -0.09   0.10   0.06     0.05  -0.06  -0.04     0.00   0.03   0.01
                     55                     56                     57
                        a                      a                      a 
 Frequencies --   624.8412               627.5051               631.5476
 Red. masses --    12.5246                14.3319                13.3052
 Frc consts  --     0.0000                 0.0000                 0.0000
 IR Inten    --    17.6512                31.2028                44.5071
 Raman Activ --     0.0000                 0.0000                 0.0000
 Depolar     --     0.0000                 0.0000                 0.0000
 Atom AN      X      Y      Z        X      Y      Z        X      Y      Z
   1  53    -0.05  -0.05  -0.02     0.03   0.04  -0.10    -0.02  -0.03  -0.06
   2   6     0.28   0.23   0.31     0.06   0.02   0.04     0.14   0.14   0.18
   3   6    -0.04  -0.13   0.23     0.01  -0.03   0.03    -0.01  -0.06   0.12
   4   6     0.07   0.23  -0.15     0.01   0.03  -0.02     0.03   0.15  -0.09
   5   6    -0.02  -0.19   0.21     0.00  -0.03   0.03    -0.01  -0.11   0.14
   6   1    -0.04  -0.05  -0.03    -0.02   0.00  -0.01    -0.02  -0.03  -0.03
   7   6     0.09   0.18  -0.17     0.01   0.02  -0.03     0.04   0.10  -0.10
   8   1    -0.04  -0.02  -0.07    -0.01   0.01  -0.01    -0.01  -0.01  -0.04
   9   6    -0.24  -0.18  -0.24    -0.04  -0.03  -0.04    -0.14  -0.11  -0.14
  10   1     0.06   0.02   0.08    -0.00   0.01   0.02     0.04   0.01   0.05
  11   1     0.07   0.06   0.05     0.00   0.01   0.01     0.05   0.02   0.03
  12   1    -0.07  -0.04  -0.07    -0.02   0.00  -0.01    -0.03  -0.03  -0.05
  13   1     0.02  -0.00  -0.01    -0.11   0.02   0.04     0.01   0.01  -0.01
  14   8     0.01  -0.02   0.00    -0.17  -0.03   0.11     0.05   0.04  -0.02
  15   7     0.00  -0.01   0.01     0.01  -0.08   0.08    -0.00   0.04  -0.04
  16   6    -0.00   0.01   0.01     0.04  -0.07  -0.10    -0.00   0.01   0.02
  17   6    -0.01  -0.01  -0.01     0.08   0.07   0.05    -0.02  -0.02  -0.01
  18   6    -0.00  -0.00   0.01     0.04   0.04  -0.14    -0.01  -0.01   0.03
  19   6    -0.01   0.01  -0.01     0.04  -0.04   0.05    -0.01  -0.00  -0.01
  20   6     0.01   0.00   0.01    -0.06  -0.01  -0.03     0.01   0.01   0.01
  21   6    -0.01  -0.01   0.00     0.07   0.12  -0.05    -0.02  -0.03   0.01
  22   6     0.01  -0.01  -0.01    -0.05   0.05   0.03     0.01  -0.01  -0.01
  23   6    -0.01   0.01  -0.01     0.04  -0.07   0.02    -0.00   0.01  -0.00
  24   6    -0.01  -0.00   0.00     0.02   0.02  -0.02    -0.00  -0.00   0.01
  25   1     0.00  -0.00  -0.00     0.01   0.01  -0.04    -0.00   0.00   0.01
  26   1    -0.00  -0.01   0.01     0.03   0.02  -0.04    -0.01  -0.00   0.00
  27   1    -0.00   0.00  -0.00    -0.01   0.02   0.01     0.01  -0.01  -0.00
  28   1    -0.00  -0.00  -0.00    -0.00   0.01   0.04     0.00  -0.00  -0.01
  29   1    -0.01   0.01  -0.01     0.04  -0.05   0.05    -0.01   0.01  -0.01
  30   1     0.00  -0.00  -0.00    -0.01   0.01   0.01     0.01  -0.00  -0.01
  31   1     0.00   0.00   0.00    -0.01   0.00   0.01    -0.00   0.00  -0.00
  32   1     0.01  -0.00   0.01    -0.06  -0.00  -0.02     0.01  -0.00   0.01
  33   1    -0.00  -0.01   0.01     0.03   0.03  -0.03    -0.01  -0.00   0.01
  34   1     0.00   0.00   0.00     0.02   0.04  -0.01    -0.01  -0.01   0.00
  35   1     0.00  -0.00  -0.00    -0.01  -0.00   0.00     0.00   0.00   0.00
  36   1     0.00   0.00   0.00    -0.02  -0.01  -0.01     0.00   0.00   0.00
  37   1     0.01  -0.01  -0.00    -0.05   0.04   0.02     0.01  -0.01  -0.01
  38   1     0.00   0.01   0.00    -0.01  -0.04  -0.00     0.01   0.01   0.00
  39   1    -0.00   0.00  -0.00    -0.03  -0.00  -0.02     0.01  -0.00   0.01
  40   1    -0.01   0.01  -0.00     0.04  -0.06   0.03    -0.01   0.02  -0.01
  41   1     0.00   0.00  -0.00    -0.05  -0.02   0.04     0.01   0.01  -0.01
  42   1    -0.00   0.00   0.00     0.07  -0.04   0.01    -0.02   0.01  -0.00
  43   8     0.04  -0.00  -0.28     0.01   0.00   0.03    -0.10  -0.05   0.49
  44   6    -0.03  -0.13   0.08     0.01  -0.00  -0.01     0.14   0.24  -0.14
  45   8    -0.10   0.24  -0.03     0.01  -0.01  -0.01     0.12  -0.39   0.04
  46   6     0.08  -0.12   0.20    -0.00   0.00  -0.01    -0.11   0.20  -0.30
  47   1     0.05  -0.04   0.08    -0.00   0.01  -0.01    -0.11   0.09  -0.16
  48   1     0.02   0.00   0.02    -0.00   0.00   0.00    -0.03  -0.03   0.02
  49   1     0.05  -0.03   0.08    -0.00  -0.00   0.00    -0.10   0.04  -0.10
  50   8     0.02   0.05  -0.08    -0.10  -0.12   0.16     0.00  -0.02   0.04
  51   8     0.01  -0.03   0.00    -0.31   0.27  -0.15     0.02  -0.01   0.01
  52   6     0.00   0.04   0.00     0.14  -0.18  -0.05    -0.02   0.01  -0.01
  53   8     0.00  -0.02  -0.03    -0.21   0.07   0.44     0.02   0.01  -0.02
  54   6    -0.02   0.01   0.01     0.34  -0.17  -0.17    -0.03   0.01   0.01
  55   1    -0.01  -0.00   0.00     0.12  -0.04  -0.06    -0.01   0.01   0.01
  56   1    -0.02   0.00   0.01     0.13  -0.05  -0.06    -0.00   0.00   0.00
  57   1     0.00  -0.01  -0.00     0.07  -0.02  -0.03    -0.01   0.01   0.01
                     58                     59                     60
                        a                      a                      a 
 Frequencies --   661.4927               774.6548               807.8842
 Red. masses --    10.7805                 2.6479                 9.3339
 Frc consts  --     0.0000                 0.0000                 0.0000
 IR Inten    --     5.3894                23.8454                 9.1888
 Raman Activ --     0.0000                 0.0000                 0.0000
 Depolar     --     0.0000                 0.0000                 0.0000
 Atom AN      X      Y      Z        X      Y      Z        X      Y      Z
   1  53    -0.00   0.01   0.01     0.00  -0.00  -0.00    -0.01  -0.02   0.02
   2   6     0.34  -0.26  -0.16    -0.16   0.11   0.06     0.00   0.00  -0.00
   3   6    -0.31   0.22   0.11     0.09  -0.05  -0.03    -0.00   0.00  -0.00
   4   6    -0.30   0.18   0.11     0.10  -0.07  -0.04     0.00   0.00  -0.00
   5   6     0.29  -0.18  -0.12     0.13  -0.09  -0.03    -0.00  -0.00  -0.00
   6   1    -0.13   0.09   0.06    -0.27   0.17   0.11     0.00   0.00   0.01
   7   6     0.27  -0.22  -0.10     0.12  -0.08  -0.06     0.00  -0.00  -0.00
   8   1    -0.13   0.10   0.06    -0.27   0.21   0.11    -0.00   0.00  -0.00
   9   6    -0.26   0.19   0.11     0.12  -0.10  -0.06    -0.00  -0.00  -0.00
  10   1     0.08  -0.06  -0.04    -0.34   0.23   0.14    -0.00  -0.00  -0.00
  11   1     0.07  -0.06  -0.03    -0.35   0.24   0.12    -0.00   0.00   0.00
  12   1    -0.14   0.10   0.05    -0.38   0.25   0.13    -0.00  -0.00   0.00
  13   1     0.00   0.00  -0.00     0.00  -0.00  -0.00     0.05  -0.05  -0.03
  14   8     0.01  -0.00  -0.01     0.01  -0.00  -0.00     0.12  -0.02   0.01
  15   7     0.00   0.01  -0.00     0.00   0.00   0.00    -0.38   0.15  -0.17
  16   6     0.00   0.00   0.01     0.00   0.00   0.00    -0.08   0.05   0.16
  17   6    -0.00  -0.00  -0.00     0.00   0.00  -0.00    -0.18  -0.14  -0.03
  18   6    -0.00  -0.00   0.01     0.00  -0.00   0.00     0.01   0.10  -0.06
  19   6     0.00  -0.00  -0.00     0.00  -0.00   0.00     0.08  -0.16   0.10
  20   6     0.01   0.00  -0.00     0.01   0.00  -0.01    -0.08  -0.01  -0.01
  21   6    -0.00  -0.01   0.00    -0.00  -0.00   0.00     0.03   0.17  -0.17
  22   6     0.00  -0.00  -0.00     0.00  -0.00  -0.00    -0.13   0.11   0.11
  23   6    -0.00   0.00  -0.00    -0.00   0.00  -0.00     0.17  -0.23   0.21
  24   6    -0.00  -0.00   0.00    -0.00  -0.00   0.00     0.16   0.12  -0.19
  25   1    -0.00  -0.00   0.00    -0.00  -0.00   0.00     0.00  -0.02  -0.09
  26   1    -0.00  -0.00   0.00    -0.00  -0.00   0.00    -0.00  -0.05   0.05
  27   1     0.00  -0.00  -0.00     0.00  -0.00  -0.00     0.07  -0.13   0.02
  28   1     0.00  -0.00  -0.00     0.00  -0.00   0.00     0.05  -0.08  -0.02
  29   1    -0.00   0.00  -0.00    -0.00   0.00  -0.00    -0.02   0.03  -0.05
  30   1    -0.00  -0.00  -0.01    -0.01  -0.00  -0.01    -0.01   0.00  -0.02
  31   1    -0.00   0.01   0.00     0.00   0.00   0.00    -0.05  -0.01  -0.04
  32   1     0.01  -0.01   0.01     0.00  -0.01   0.01     0.01   0.01  -0.00
  33   1    -0.00  -0.00   0.00     0.00  -0.00   0.00     0.02  -0.05   0.03
  34   1    -0.00  -0.00   0.00    -0.00  -0.00   0.00     0.06   0.13   0.01
  35   1     0.00  -0.00  -0.00     0.00  -0.00  -0.00    -0.05   0.10   0.06
  36   1     0.00   0.00   0.00     0.00  -0.00  -0.00    -0.01   0.06   0.03
  37   1     0.00  -0.00  -0.00     0.00  -0.00  -0.00     0.02  -0.00  -0.01
  38   1     0.00   0.00  -0.00    -0.00   0.00  -0.00     0.09  -0.02   0.08
  39   1     0.00   0.00   0.00    -0.00  -0.00  -0.00     0.15  -0.09   0.15
  40   1    -0.00   0.00  -0.00    -0.00  -0.00   0.00     0.01   0.05  -0.01
  41   1     0.00   0.00  -0.00    -0.00  -0.00  -0.00    -0.15  -0.06   0.12
  42   1    -0.00   0.00  -0.00    -0.00   0.00   0.00     0.26  -0.13  -0.02
  43   8    -0.00  -0.00   0.00    -0.00  -0.00   0.01     0.01  -0.00  -0.01
  44   6     0.01   0.01  -0.00     0.01   0.01  -0.01    -0.00   0.01   0.00
  45   8    -0.00  -0.00   0.00     0.00  -0.01   0.00    -0.00   0.00   0.00
  46   6     0.00  -0.00   0.00     0.01   0.00   0.00    -0.00   0.00   0.00
  47   1    -0.00   0.00  -0.00    -0.01   0.00  -0.01     0.00  -0.00   0.00
  48   1     0.00  -0.01   0.01     0.00  -0.01   0.01    -0.00   0.00  -0.00
  49   1    -0.00  -0.00   0.00    -0.00  -0.00  -0.00    -0.00   0.00  -0.00
  50   8     0.00  -0.00   0.00     0.00   0.01  -0.00     0.15  -0.00  -0.05
  51   8     0.01  -0.01   0.00     0.01  -0.01   0.01     0.00  -0.00  -0.00
  52   6    -0.00  -0.01   0.00    -0.00  -0.00   0.01    -0.00   0.00  -0.01
  53   8     0.00   0.01  -0.00     0.00  -0.00  -0.03     0.01  -0.00   0.00
  54   6     0.00  -0.00  -0.00     0.00  -0.00  -0.00    -0.01   0.00   0.00
  55   1     0.00   0.00   0.00     0.00  -0.00  -0.00    -0.00   0.00   0.00
  56   1     0.01  -0.00  -0.00     0.00  -0.00  -0.00    -0.00   0.00   0.00
  57   1    -0.00   0.00   0.00     0.00  -0.00   0.00    -0.00   0.00   0.00
                     61                     62                     63
                        a                      a                      a 
 Frequencies --   817.0479               862.6886               880.1759
 Red. masses --     9.2837                11.1093                 6.0720
 Frc consts  --     0.0000                 0.0000                 0.0000
 IR Inten    --     1.1778                 7.2395                 2.6868
 Raman Activ --     0.0000                 0.0000                 0.0000
 Depolar     --     0.0000                 0.0000                 0.0000
 Atom AN      X      Y      Z        X      Y      Z        X      Y      Z
   1  53    -0.00  -0.00   0.01    -0.00   0.01  -0.01     0.00  -0.00   0.00
   2   6     0.00  -0.00  -0.00     0.00  -0.00   0.00     0.00   0.00  -0.00
   3   6     0.00  -0.00  -0.00     0.00  -0.00  -0.00    -0.00   0.00   0.00
   4   6    -0.00   0.00  -0.00    -0.00  -0.00   0.00    -0.00   0.00  -0.00
   5   6    -0.00   0.00  -0.00     0.00   0.00   0.00     0.00  -0.00  -0.00
   6   1     0.00  -0.00   0.00    -0.01   0.00  -0.00     0.01  -0.00   0.00
   7   6    -0.00  -0.00   0.00    -0.00  -0.00   0.00    -0.00  -0.00   0.00
   8   1     0.00  -0.00  -0.00     0.00  -0.00  -0.00     0.00  -0.00  -0.00
   9   6    -0.00  -0.00   0.00     0.00   0.00   0.00     0.00  -0.00   0.00
  10   1     0.00  -0.00  -0.00     0.00   0.00  -0.00    -0.00   0.00  -0.00
  11   1     0.00  -0.00  -0.00     0.00  -0.00  -0.00     0.00  -0.00   0.00
  12   1     0.00  -0.00  -0.00     0.00   0.00  -0.00    -0.00   0.00   0.00
  13   1     0.05   0.06   0.07     0.01   0.06  -0.01     0.04   0.07   0.09
  14   8     0.01  -0.05  -0.06     0.03   0.16  -0.16    -0.01  -0.04  -0.01
  15   7     0.02   0.29   0.24     0.61  -0.31   0.17     0.03   0.31   0.27
  16   6    -0.11   0.08   0.16    -0.08   0.06   0.17     0.04  -0.04  -0.04
  17   6     0.08   0.04   0.04    -0.18  -0.16  -0.05    -0.06  -0.01  -0.02
  18   6     0.02   0.21  -0.25    -0.01   0.06   0.03     0.24  -0.23  -0.08
  19   6     0.18  -0.30   0.18    -0.03   0.04   0.01    -0.03   0.01   0.01
  20   6    -0.26  -0.07  -0.11    -0.13  -0.02  -0.01    -0.07  -0.04  -0.05
  21   6    -0.04  -0.20   0.13    -0.07   0.02  -0.09    -0.30   0.04  -0.12
  22   6     0.12  -0.13  -0.12    -0.12   0.03   0.06     0.04  -0.07  -0.07
  23   6    -0.13   0.17  -0.14    -0.05  -0.01  -0.02     0.04  -0.02   0.02
  24   6     0.07   0.10   0.02     0.13   0.08  -0.13    -0.01  -0.02  -0.01
  25   1     0.03  -0.01  -0.19     0.01  -0.02  -0.05     0.01   0.14   0.31
  26   1     0.08  -0.02   0.04    -0.02  -0.06   0.06    -0.15   0.14  -0.30
  27   1     0.09  -0.15   0.04     0.02  -0.01   0.02     0.03  -0.05   0.00
  28   1     0.07  -0.13   0.02    -0.01   0.05  -0.01     0.00   0.03  -0.04
  29   1     0.02  -0.02  -0.01     0.01   0.01   0.01     0.00   0.04  -0.03
  30   1    -0.06  -0.04  -0.09    -0.05  -0.05  -0.09    -0.03  -0.02  -0.02
  31   1    -0.12  -0.05  -0.11    -0.07  -0.06  -0.09    -0.01  -0.02  -0.01
  32   1     0.05   0.00  -0.01     0.13   0.02   0.03    -0.02  -0.02  -0.01
  33   1    -0.06   0.03   0.03    -0.01  -0.10   0.07     0.08  -0.32   0.08
  34   1    -0.07  -0.12   0.01     0.05   0.10   0.03     0.13   0.28   0.13
  35   1     0.04  -0.10  -0.07    -0.02   0.11   0.09     0.00  -0.02  -0.03
  36   1     0.01  -0.08  -0.05     0.00   0.10   0.07     0.01  -0.03  -0.04
  37   1    -0.03   0.01   0.01     0.11  -0.08  -0.07    -0.01  -0.00  -0.01
  38   1    -0.05   0.05  -0.06    -0.02   0.02  -0.03     0.01  -0.05   0.04
  39   1    -0.06   0.05  -0.07     0.03  -0.03   0.01    -0.03   0.02  -0.02
  40   1    -0.03   0.02  -0.02    -0.00   0.00  -0.02    -0.00  -0.02   0.02
  41   1    -0.06  -0.08  -0.04    -0.08  -0.03   0.08     0.06   0.16   0.17
  42   1     0.11   0.10   0.13     0.18  -0.08  -0.00    -0.00  -0.00  -0.00
  43   8    -0.00   0.00   0.00    -0.01   0.00   0.01    -0.00   0.00   0.00
  44   6    -0.00  -0.00  -0.00     0.00  -0.00  -0.00    -0.00   0.00  -0.01
  45   8     0.00   0.00  -0.00     0.00  -0.00  -0.00     0.00  -0.00  -0.00
  46   6     0.00  -0.00   0.01     0.00  -0.00  -0.00     0.00  -0.00   0.01
  47   1     0.00  -0.00   0.00     0.00   0.00   0.00     0.00  -0.00   0.00
  48   1     0.00   0.00  -0.00    -0.00   0.00  -0.00     0.00  -0.00   0.00
  49   1     0.00  -0.00   0.00     0.00  -0.00   0.00     0.00  -0.00   0.00
  50   8     0.03  -0.01  -0.02    -0.19   0.03   0.05     0.02  -0.01  -0.01
  51   8     0.00  -0.00  -0.00    -0.00  -0.00   0.01     0.00   0.00  -0.00
  52   6     0.00   0.00  -0.00    -0.00  -0.00   0.01     0.00  -0.00  -0.00
  53   8     0.00  -0.00   0.00     0.00   0.00  -0.02     0.00  -0.00   0.01
  54   6    -0.00   0.00   0.00     0.01  -0.00   0.00    -0.01   0.00   0.00
  55   1    -0.00   0.00   0.00     0.01  -0.00  -0.00    -0.00   0.00   0.00
  56   1    -0.00   0.00   0.00    -0.00   0.00  -0.00    -0.00   0.00   0.00
  57   1    -0.00   0.00   0.00     0.00  -0.00  -0.00    -0.00   0.00   0.00
                     64                     65                     66
                        a                      a                      a 
 Frequencies --   893.9022               919.8638               923.1730
 Red. masses --     3.2395                 8.9505                 9.3864
 Frc consts  --     0.0000                 0.0000                 0.0000
 IR Inten    --     1.5287                13.4438                 8.3005
 Raman Activ --     0.0000                 0.0000                 0.0000
 Depolar     --     0.0000                 0.0000                 0.0000
 Atom AN      X      Y      Z        X      Y      Z        X      Y      Z
   1  53     0.00  -0.00  -0.00     0.01  -0.01   0.01     0.00   0.01   0.00
   2   6     0.00   0.01   0.00    -0.05  -0.02  -0.04    -0.01  -0.02  -0.02
   3   6    -0.14   0.08   0.06     0.16  -0.03  -0.05    -0.00   0.02   0.00
   4   6     0.16  -0.12  -0.07     0.11  -0.08   0.02    -0.04   0.02   0.03
   5   6    -0.19   0.13   0.07    -0.06   0.02   0.07    -0.02   0.01   0.03
   6   1     0.32  -0.20  -0.13    -0.26   0.18   0.12     0.04  -0.02  -0.02
   7   6     0.16  -0.14  -0.06     0.01   0.05  -0.01     0.05  -0.00  -0.02
   8   1    -0.34   0.28   0.14    -0.21   0.17   0.10     0.07  -0.05  -0.02
   9   6    -0.01   0.02  -0.00    -0.18   0.05  -0.01     0.02  -0.03  -0.03
  10   1     0.39  -0.25  -0.15     0.15  -0.10  -0.04     0.03  -0.02  -0.00
  11   1    -0.35   0.23   0.12     0.07  -0.03  -0.02    -0.06   0.05   0.02
  12   1     0.03  -0.01  -0.02     0.19  -0.15  -0.09    -0.05   0.03   0.01
  13   1    -0.00   0.00   0.01     0.01  -0.01  -0.02    -0.03   0.01   0.00
  14   8    -0.00   0.00   0.00     0.02   0.02  -0.03     0.03   0.04  -0.05
  15   7     0.01   0.00   0.00    -0.04  -0.02   0.01    -0.02  -0.04   0.03
  16   6    -0.00  -0.01   0.00     0.02   0.02  -0.03     0.04   0.05  -0.07
  17   6    -0.00  -0.00   0.00     0.02   0.03  -0.02     0.06   0.07  -0.08
  18   6    -0.00  -0.00  -0.01     0.02   0.07   0.09     0.05   0.22   0.28
  19   6    -0.01   0.01  -0.00     0.02  -0.03   0.00     0.07  -0.05  -0.01
  20   6    -0.00  -0.01   0.01    -0.01   0.01  -0.03    -0.04  -0.01  -0.07
  21   6     0.00   0.00   0.01    -0.05  -0.09  -0.07    -0.14  -0.28  -0.22
  22   6    -0.00  -0.00   0.00     0.00   0.03   0.01    -0.01   0.10   0.02
  23   6    -0.00   0.00  -0.00     0.04  -0.01   0.01     0.11  -0.02   0.02
  24   6     0.01   0.00  -0.00    -0.05   0.01   0.01    -0.15   0.04   0.02
  25   1     0.00   0.00  -0.00     0.02  -0.00  -0.02     0.06  -0.01  -0.08
  26   1    -0.00   0.00  -0.00     0.04  -0.00   0.06     0.14  -0.01   0.20
  27   1    -0.00   0.00  -0.00    -0.01   0.01   0.00    -0.05   0.06  -0.01
  28   1    -0.00   0.00  -0.00     0.00  -0.02   0.01     0.01  -0.05   0.05
  29   1    -0.00   0.00  -0.00     0.01  -0.02   0.01     0.02  -0.06   0.04
  30   1     0.02   0.01   0.01    -0.03  -0.02  -0.00    -0.05  -0.02   0.01
  31   1    -0.01  -0.01  -0.01     0.03   0.01   0.03     0.05   0.02   0.06
  32   1    -0.00   0.01  -0.01    -0.02  -0.02   0.00    -0.08  -0.03  -0.02
  33   1    -0.00   0.01   0.00     0.02  -0.09  -0.01     0.06  -0.25  -0.02
  34   1    -0.00  -0.00  -0.00     0.03   0.03   0.00     0.09   0.06   0.00
  35   1    -0.00   0.00   0.00     0.01  -0.03  -0.02     0.03  -0.09  -0.05
  36   1     0.00   0.00   0.00    -0.02  -0.00   0.01    -0.06   0.01   0.05
  37   1     0.00  -0.00  -0.00    -0.03   0.02   0.03    -0.07   0.05   0.08
  38   1     0.00   0.00  -0.00     0.01  -0.03   0.02     0.02  -0.08   0.07
  39   1    -0.00   0.00  -0.00    -0.02   0.01  -0.01    -0.08   0.04  -0.05
  40   1    -0.00   0.00  -0.00     0.00  -0.02   0.02     0.01  -0.06   0.06
  41   1     0.00  -0.00  -0.00    -0.02   0.00   0.01    -0.06   0.01   0.02
  42   1     0.00   0.00   0.00    -0.01   0.00   0.01    -0.03   0.01   0.01
  43   8    -0.01   0.02   0.01    -0.04   0.07   0.04     0.13  -0.25  -0.13
  44   6    -0.01   0.00  -0.02    -0.03   0.02  -0.06     0.09  -0.08   0.19
  45   8     0.01  -0.01  -0.01     0.02  -0.04  -0.07    -0.07   0.12   0.23
  46   6     0.02  -0.01   0.02     0.05  -0.04   0.07    -0.13   0.15  -0.24
  47   1    -0.00  -0.00  -0.00     0.00  -0.01   0.01    -0.03   0.05  -0.06
  48   1     0.01  -0.02   0.02     0.01  -0.03   0.04    -0.04   0.07  -0.09
  49   1    -0.00  -0.01   0.01     0.00  -0.02   0.03    -0.03   0.06  -0.10
  50   8    -0.00  -0.00   0.00    -0.00   0.01  -0.01    -0.00  -0.00  -0.00
  51   8     0.00   0.01  -0.04    -0.03  -0.07   0.31     0.00   0.01  -0.03
  52   6     0.02  -0.00  -0.03    -0.16   0.06   0.15     0.01  -0.01  -0.01
  53   8     0.03  -0.03   0.05    -0.18   0.19  -0.32     0.01  -0.02   0.03
  54   6    -0.04   0.02   0.02     0.29  -0.15  -0.11    -0.02   0.01   0.01
  55   1    -0.02   0.01   0.01     0.13  -0.06  -0.08    -0.01   0.00   0.01
  56   1    -0.01   0.01   0.00     0.08  -0.04  -0.04    -0.01   0.00   0.00
  57   1    -0.01   0.01   0.01     0.08  -0.04  -0.04    -0.00   0.00   0.00
                     67                     68                     69
                        a                      a                      a 
 Frequencies --   924.2868               929.1450               938.3251
 Red. masses --    11.0180                 6.9227                 9.0327
 Frc consts  --     0.0000                 0.0000                 0.0000
 IR Inten    --    13.0792                16.2375                 7.4090
 Raman Activ --     0.0000                 0.0000                 0.0000
 Depolar     --     0.0000                 0.0000                 0.0000
 Atom AN      X      Y      Z        X      Y      Z        X      Y      Z
   1  53     0.01   0.01   0.01    -0.01   0.01  -0.01     0.00   0.01   0.01
   2   6    -0.04  -0.04  -0.05    -0.04  -0.00  -0.01    -0.18  -0.17  -0.23
   3   6     0.05   0.03  -0.01     0.11  -0.04  -0.03     0.26   0.17  -0.11
   4   6    -0.01  -0.00   0.06     0.17  -0.12  -0.03    -0.09  -0.00   0.32
   5   6    -0.04   0.01   0.07     0.05  -0.04   0.00    -0.10  -0.03   0.29
   6   1    -0.03   0.03   0.02    -0.26   0.17   0.11    -0.16   0.20   0.09
   7   6     0.07   0.02  -0.03    -0.08   0.06   0.02     0.25   0.17  -0.11
   8   1     0.04  -0.01   0.01    -0.31   0.27   0.15     0.21  -0.19  -0.01
   9   6    -0.04  -0.03  -0.05    -0.22   0.11   0.03    -0.15  -0.16  -0.20
  10   1     0.08  -0.05  -0.01    -0.03   0.03   0.02     0.20  -0.16  -0.01
  11   1    -0.06   0.06   0.02     0.18  -0.12  -0.07    -0.13   0.18   0.05
  12   1    -0.01  -0.01  -0.01     0.30  -0.21  -0.12    -0.08  -0.02  -0.04
  13   1     0.01  -0.00   0.01    -0.02  -0.00   0.00    -0.00  -0.01  -0.00
  14   8    -0.02  -0.04   0.03    -0.01  -0.01   0.01    -0.01   0.00   0.00
  15   7     0.02   0.04   0.00     0.02   0.01  -0.00     0.01  -0.01  -0.01
  16   6    -0.03  -0.03   0.05     0.00   0.01   0.00    -0.00   0.01   0.01
  17   6    -0.05  -0.05   0.06    -0.01  -0.01   0.01     0.00   0.00   0.00
  18   6    -0.03  -0.16  -0.19    -0.00  -0.02  -0.02     0.00  -0.01  -0.01
  19   6    -0.04   0.04   0.00     0.00  -0.01   0.00    -0.00  -0.01   0.00
  20   6     0.02   0.00   0.04    -0.00   0.01  -0.01     0.00   0.01  -0.00
  21   6     0.10   0.20   0.15     0.01   0.03   0.02     0.00   0.01   0.01
  22   6     0.01  -0.08  -0.02    -0.00  -0.01  -0.00    -0.00  -0.00   0.00
  23   6    -0.08   0.02  -0.02    -0.01   0.00  -0.00    -0.00   0.00  -0.00
  24   6     0.11  -0.03  -0.02     0.01  -0.01  -0.00     0.00  -0.00   0.00
  25   1    -0.04   0.01   0.06    -0.00   0.00   0.01    -0.00   0.00   0.00
  26   1    -0.10   0.01  -0.14    -0.01  -0.00  -0.02    -0.01  -0.00  -0.01
  27   1     0.02  -0.03   0.00     0.00  -0.00   0.00     0.00  -0.00   0.00
  28   1    -0.00   0.02  -0.03     0.00   0.00  -0.00    -0.00   0.00  -0.00
  29   1    -0.02   0.04  -0.03     0.00  -0.00   0.00     0.00   0.00  -0.00
  30   1     0.03   0.01  -0.01    -0.02  -0.01  -0.01    -0.01  -0.01  -0.01
  31   1    -0.04  -0.01  -0.04     0.01   0.00   0.01     0.01   0.00   0.00
  32   1     0.05   0.02   0.01     0.01  -0.01   0.01     0.01  -0.00   0.01
  33   1    -0.04   0.18   0.02    -0.00   0.02   0.00    -0.00   0.00  -0.00
  34   1    -0.06  -0.04  -0.00    -0.01  -0.01  -0.00    -0.00  -0.00   0.00
  35   1    -0.02   0.07   0.04    -0.00   0.01   0.01    -0.00   0.00   0.00
  36   1     0.04  -0.01  -0.04     0.01   0.00  -0.00     0.00  -0.00  -0.00
  37   1     0.05  -0.04  -0.06     0.01  -0.01  -0.01     0.00  -0.00  -0.00
  38   1    -0.02   0.06  -0.05    -0.00   0.01  -0.01    -0.00  -0.00  -0.00
  39   1     0.06  -0.03   0.03     0.01  -0.00   0.00    -0.00   0.00  -0.00
  40   1    -0.01   0.04  -0.04     0.00   0.00  -0.00     0.00  -0.00   0.00
  41   1     0.04  -0.00  -0.01     0.01   0.00  -0.00     0.00   0.00  -0.00
  42   1     0.02  -0.01  -0.01    -0.00  -0.00  -0.01    -0.00   0.00   0.00
  43   8     0.16  -0.31  -0.16     0.06  -0.10  -0.05    -0.04   0.08   0.03
  44   6     0.11  -0.09   0.23     0.03  -0.03   0.07    -0.02   0.04  -0.06
  45   8    -0.08   0.15   0.28    -0.02   0.05   0.10     0.02  -0.04  -0.08
  46   6    -0.16   0.18  -0.29    -0.04   0.06  -0.09     0.02  -0.05   0.08
  47   1    -0.03   0.06  -0.07    -0.01   0.02  -0.03     0.02  -0.03   0.04
  48   1    -0.05   0.09  -0.12    -0.01   0.02  -0.03     0.01  -0.01   0.01
  49   1    -0.03   0.07  -0.12    -0.02   0.02  -0.04     0.02  -0.01   0.02
  50   8     0.00   0.00  -0.01     0.01  -0.01   0.01     0.00  -0.01   0.01
  51   8    -0.01  -0.03   0.15     0.02   0.05  -0.24     0.01   0.02  -0.12
  52   6    -0.08   0.03   0.07     0.14  -0.06  -0.11     0.08  -0.04  -0.05
  53   8    -0.09   0.09  -0.15     0.14  -0.15   0.24     0.06  -0.06   0.10
  54   6     0.14  -0.07  -0.06    -0.23   0.12   0.09    -0.11   0.06   0.05
  55   1     0.06  -0.03  -0.04    -0.11   0.05   0.06    -0.04   0.02   0.03
  56   1     0.04  -0.02  -0.02    -0.07   0.03   0.03    -0.04   0.02   0.01
  57   1     0.04  -0.02  -0.02    -0.06   0.03   0.03    -0.03   0.02   0.01
                     70                     71                     72
                        a                      a                      a 
 Frequencies --   943.2990               945.1029               947.5433
 Red. masses --     8.0926                 5.3568                 4.6259
 Frc consts  --     0.0000                 0.0000                 0.0000
 IR Inten    --     1.8207                 1.2531                 1.6848
 Raman Activ --     0.0000                 0.0000                 0.0000
 Depolar     --     0.0000                 0.0000                 0.0000
 Atom AN      X      Y      Z        X      Y      Z        X      Y      Z
   1  53     0.00  -0.00   0.00     0.01   0.00   0.01    -0.01  -0.00  -0.01
   2   6     0.00   0.00   0.00    -0.09  -0.13  -0.16     0.14   0.07   0.12
   3   6     0.00  -0.01  -0.00    -0.06   0.23   0.02     0.07  -0.21  -0.02
   4   6    -0.00   0.00  -0.00     0.15  -0.14   0.13    -0.07   0.08  -0.13
   5   6    -0.01   0.01  -0.00     0.04  -0.07   0.15    -0.23   0.20  -0.06
   6   1    -0.01   0.01   0.01     0.23  -0.09  -0.08    -0.37   0.17   0.14
   7   6    -0.00  -0.00   0.00    -0.15   0.29   0.03    -0.13  -0.08   0.06
   8   1     0.00  -0.01  -0.00    -0.21   0.19   0.15    -0.02   0.01  -0.04
   9   6     0.01  -0.00   0.00     0.06  -0.21  -0.20     0.26  -0.03   0.05
  10   1     0.02  -0.01  -0.01     0.02  -0.01   0.04     0.40  -0.27  -0.20
  11   1     0.00  -0.00  -0.00     0.42  -0.23  -0.15     0.14  -0.14  -0.05
  12   1    -0.01   0.01   0.01    -0.36   0.20   0.08    -0.30   0.24   0.15
  13   1     0.06   0.11   0.13     0.00   0.00   0.01    -0.01  -0.01  -0.01
  14   8    -0.01  -0.03  -0.02     0.00   0.00  -0.01    -0.00  -0.00   0.01
  15   7     0.08   0.35   0.34    -0.00   0.00   0.01     0.00  -0.02  -0.02
  16   6     0.14  -0.02  -0.25     0.00  -0.01   0.00    -0.01   0.02   0.01
  17   6    -0.19  -0.14   0.03     0.00  -0.00  -0.00     0.00   0.01   0.00
  18   6    -0.10   0.02   0.23    -0.00   0.01   0.01     0.01  -0.01  -0.02
  19   6     0.12  -0.04  -0.08    -0.00   0.01  -0.01     0.00  -0.02   0.01
  20   6    -0.01  -0.04  -0.13    -0.00  -0.02   0.01     0.00   0.03  -0.01
  21   6     0.15   0.13  -0.09    -0.00  -0.01  -0.00     0.00   0.01   0.01
  22   6    -0.04  -0.13  -0.05    -0.00   0.00   0.00     0.00  -0.00   0.00
  23   6    -0.15  -0.05   0.03     0.00   0.00  -0.00     0.00   0.00   0.00
  24   6    -0.05  -0.05  -0.05     0.00   0.01  -0.00    -0.00  -0.01   0.01
  25   1    -0.01  -0.06  -0.04    -0.00  -0.00  -0.00     0.00   0.01   0.01
  26   1     0.07  -0.03   0.14     0.01   0.00   0.01    -0.01   0.00  -0.02
  27   1    -0.12   0.16  -0.04    -0.00   0.01  -0.00     0.01  -0.01   0.01
  28   1    -0.00  -0.08   0.10    -0.00  -0.00  -0.00     0.00   0.00  -0.00
  29   1     0.03  -0.14   0.09    -0.00   0.00  -0.00     0.01  -0.00  -0.00
  30   1    -0.04  -0.00   0.04     0.02   0.01   0.01    -0.04  -0.02  -0.02
  31   1     0.08   0.05   0.09    -0.01  -0.00  -0.01     0.02  -0.00   0.01
  32   1    -0.17  -0.06  -0.05    -0.01   0.01  -0.01     0.02  -0.01   0.02
  33   1     0.00   0.10  -0.04    -0.00  -0.00   0.00     0.00   0.01  -0.00
  34   1    -0.00  -0.03  -0.07     0.00  -0.00   0.00    -0.00   0.00   0.00
  35   1    -0.01   0.08   0.05     0.00  -0.00  -0.00    -0.00   0.00   0.00
  36   1     0.03   0.03  -0.00    -0.00   0.00   0.00     0.00  -0.00  -0.00
  37   1     0.10  -0.09  -0.10    -0.00   0.00   0.00     0.00  -0.00  -0.00
  38   1    -0.02   0.13  -0.10     0.00  -0.00   0.00    -0.00  -0.00  -0.00
  39   1     0.17  -0.10   0.12    -0.00   0.00  -0.00    -0.00   0.00  -0.00
  40   1    -0.01   0.09  -0.09    -0.00  -0.00   0.00     0.00  -0.00   0.00
  41   1    -0.02  -0.03  -0.04    -0.01  -0.00   0.00     0.01   0.01  -0.00
  42   1    -0.06  -0.13  -0.14     0.01  -0.00   0.00    -0.01   0.00   0.00
  43   8    -0.01   0.01   0.01     0.01  -0.01  -0.01     0.01  -0.01  -0.00
  44   6    -0.01   0.01  -0.01    -0.00   0.00   0.00     0.01  -0.01   0.01
  45   8     0.00  -0.01  -0.01     0.00   0.00   0.01    -0.00   0.01   0.01
  46   6     0.01  -0.01   0.02     0.00   0.01   0.00    -0.00   0.01  -0.02
  47   1     0.00  -0.00   0.00    -0.00  -0.00  -0.00    -0.01   0.01  -0.01
  48   1     0.00  -0.01   0.01     0.00  -0.01   0.01    -0.00   0.00  -0.00
  49   1     0.00  -0.00   0.00    -0.01   0.00  -0.01    -0.00   0.00  -0.00
  50   8     0.01  -0.01  -0.01    -0.00  -0.00   0.00     0.00   0.00  -0.00
  51   8     0.00  -0.00   0.00    -0.00  -0.00   0.02     0.01   0.00  -0.05
  52   6     0.00  -0.00   0.00    -0.01   0.00   0.01     0.03  -0.01  -0.02
  53   8    -0.00  -0.00  -0.00    -0.01   0.01  -0.02     0.03  -0.03   0.05
  54   6    -0.00  -0.00  -0.00     0.02  -0.01  -0.00    -0.05   0.03   0.01
  55   1     0.00  -0.00  -0.00     0.01  -0.01  -0.01    -0.03   0.01   0.02
  56   1    -0.00   0.00  -0.00     0.00  -0.00  -0.00    -0.01   0.00   0.01
  57   1    -0.00   0.00   0.00    -0.00   0.00  -0.00    -0.01   0.00   0.01
                     73                     74                     75
                        a                      a                      a 
 Frequencies --   971.6324               972.6594               984.6268
 Red. masses --     5.4534                 6.1791                 5.0300
 Frc consts  --     0.0000                 0.0000                 0.0000
 IR Inten    --     2.0093                13.3218                 4.0090
 Raman Activ --     0.0000                 0.0000                 0.0000
 Depolar     --     0.0000                 0.0000                 0.0000
 Atom AN      X      Y      Z        X      Y      Z        X      Y      Z
   1  53     0.00  -0.00   0.00     0.00   0.01  -0.00    -0.00   0.00   0.00
   2   6    -0.01  -0.00  -0.00     0.01   0.01   0.01    -0.00  -0.00  -0.00
   3   6    -0.01   0.01   0.00     0.01  -0.02  -0.00    -0.01   0.01   0.00
   4   6     0.00  -0.00   0.00    -0.01   0.00  -0.00    -0.00  -0.00   0.00
   5   6     0.00  -0.00   0.00    -0.01   0.01  -0.00     0.00  -0.00   0.00
   6   1     0.02  -0.01  -0.00    -0.04   0.02   0.01     0.01  -0.01  -0.01
   7   6     0.00   0.00  -0.00    -0.00  -0.01   0.00     0.00   0.00  -0.00
   8   1     0.00  -0.00   0.00     0.00  -0.00  -0.00    -0.00  -0.00   0.00
   9   6    -0.00  -0.00  -0.00     0.00   0.01   0.01     0.00  -0.00  -0.00
  10   1    -0.01   0.00   0.00     0.02  -0.01  -0.01    -0.00   0.00   0.00
  11   1    -0.00   0.00   0.00     0.00  -0.00  -0.00    -0.00   0.00  -0.00
  12   1    -0.00  -0.00   0.00     0.00   0.00   0.00    -0.00   0.00   0.00
  13   1     0.04   0.04   0.05    -0.04   0.03   0.02    -0.02  -0.01  -0.01
  14   8    -0.03  -0.04   0.00     0.05   0.03  -0.06     0.07   0.06  -0.07
  15   7     0.06   0.15   0.13    -0.06   0.04   0.07    -0.12  -0.02   0.05
  16   6    -0.16  -0.03  -0.12     0.05  -0.23  -0.02    -0.17  -0.11  -0.10
  17   6     0.02  -0.14  -0.21     0.15  -0.12   0.13    -0.07   0.14   0.15
  18   6    -0.04   0.03  -0.07    -0.04  -0.06   0.14     0.00   0.03   0.04
  19   6    -0.08  -0.24  -0.05    -0.13   0.15  -0.10    -0.16  -0.15  -0.07
  20   6     0.13   0.16   0.11     0.10  -0.09  -0.01     0.18   0.15   0.11
  21   6     0.06   0.01   0.01    -0.04  -0.14   0.07    -0.03  -0.05  -0.04
  22   6    -0.09   0.13   0.15     0.08   0.03   0.16     0.09  -0.09  -0.18
  23   6     0.07  -0.12  -0.18    -0.12   0.11  -0.23    -0.08   0.06   0.17
  24   6    -0.02  -0.04   0.10     0.12   0.21  -0.23     0.04   0.08  -0.08
  25   1     0.02   0.01  -0.05    -0.13  -0.12   0.04    -0.02  -0.02  -0.01
  26   1     0.05   0.03  -0.01     0.00  -0.02   0.04     0.03   0.01   0.02
  27   1     0.12  -0.05   0.10     0.00   0.03  -0.00     0.15  -0.07   0.11
  28   1    -0.08   0.31  -0.05    -0.04   0.13  -0.05    -0.10   0.39  -0.09
  29   1     0.19  -0.18   0.12     0.00   0.03  -0.01     0.21  -0.14   0.11
  30   1    -0.08  -0.08  -0.06     0.13   0.10   0.11    -0.06  -0.05  -0.02
  31   1     0.12  -0.03   0.03    -0.02   0.05   0.03     0.14  -0.01   0.07
  32   1     0.20   0.02   0.10    -0.15  -0.01  -0.07     0.13   0.01   0.08
  33   1    -0.04   0.05   0.04    -0.02  -0.03   0.03     0.02  -0.04  -0.01
  34   1     0.01  -0.04  -0.06    -0.10  -0.03   0.14    -0.00   0.02   0.03
  35   1    -0.07   0.07   0.03    -0.11   0.06  -0.01     0.10  -0.14  -0.07
  36   1    -0.01   0.01  -0.01     0.07  -0.16  -0.19    -0.03   0.01   0.05
  37   1    -0.06   0.07   0.04    -0.16   0.17   0.07     0.04  -0.07  -0.00
  38   1     0.18  -0.14   0.31     0.03   0.00   0.06    -0.16   0.13  -0.28
  39   1    -0.07   0.10   0.04    -0.06   0.08  -0.02     0.11  -0.12  -0.00
  40   1    -0.20   0.19  -0.10    -0.12   0.12  -0.08     0.20  -0.17   0.06
  41   1     0.06   0.01  -0.05    -0.21  -0.08   0.13    -0.08  -0.03   0.05
  42   1    -0.09   0.05   0.00     0.31  -0.12   0.01     0.14  -0.05   0.02
  43   8     0.00  -0.01  -0.00    -0.00   0.01   0.00     0.00  -0.01  -0.00
  44   6     0.00   0.00   0.00     0.00  -0.01   0.01    -0.01  -0.00   0.00
  45   8    -0.00   0.00   0.00    -0.00   0.00   0.01    -0.00   0.00   0.01
  46   6    -0.00   0.00  -0.00     0.00  -0.00  -0.01     0.00   0.01  -0.01
  47   1     0.00  -0.00   0.00    -0.01   0.01  -0.01    -0.00   0.00  -0.01
  48   1    -0.00   0.00  -0.00    -0.00   0.00   0.00     0.00  -0.00   0.01
  49   1    -0.00   0.00  -0.00     0.00  -0.01   0.01    -0.00  -0.00  -0.00
  50   8     0.00  -0.00  -0.01     0.01  -0.01   0.01     0.01  -0.00  -0.00
  51   8     0.00  -0.00   0.00     0.00   0.00  -0.01     0.00   0.00  -0.01
  52   6    -0.00  -0.00   0.00     0.01  -0.01  -0.00     0.01  -0.01  -0.00
  53   8    -0.00   0.00  -0.00     0.00  -0.01   0.01    -0.00   0.00  -0.00
  54   6     0.01   0.00   0.00    -0.01   0.00   0.01    -0.00   0.00   0.02
  55   1     0.00  -0.00  -0.00     0.00  -0.00  -0.00     0.01  -0.01  -0.01
  56   1    -0.00   0.00   0.00    -0.01   0.00   0.00    -0.01   0.01   0.00
  57   1     0.00  -0.00  -0.00    -0.00   0.00  -0.00    -0.01   0.00  -0.00
                     76                     77                     78
                        a                      a                      a 
 Frequencies --   991.5356               993.5821              1004.4386
 Red. masses --     5.8473                 6.1431                 5.7052
 Frc consts  --     0.0000                 0.0000                 0.0000
 IR Inten    --     0.3916               108.1476                28.1064
 Raman Activ --     0.0000                 0.0000                 0.0000
 Depolar     --     0.0000                 0.0000                 0.0000
 Atom AN      X      Y      Z        X      Y      Z        X      Y      Z
   1  53     0.00  -0.00  -0.00    -0.00   0.00  -0.00    -0.00   0.00   0.00
   2   6     0.01   0.00   0.01     0.01   0.01   0.01    -0.01  -0.01  -0.01
   3   6     0.02  -0.02  -0.01    -0.00  -0.01   0.00     0.01   0.01  -0.00
   4   6    -0.00   0.00  -0.00    -0.00   0.00  -0.01    -0.01  -0.00   0.01
   5   6    -0.01   0.01  -0.00    -0.00   0.00  -0.00     0.00  -0.01   0.01
   6   1    -0.06   0.03   0.03    -0.01  -0.00  -0.01     0.00   0.00   0.01
   7   6    -0.00  -0.01   0.00    -0.00  -0.00   0.00     0.01   0.01  -0.00
   8   1    -0.00  -0.00  -0.00    -0.00  -0.00  -0.00     0.02  -0.01  -0.00
   9   6    -0.00   0.00   0.00     0.01   0.00   0.01    -0.01  -0.01  -0.01
  10   1     0.02  -0.01  -0.01     0.00   0.00  -0.00    -0.01  -0.00   0.00
  11   1     0.00  -0.00   0.00     0.00  -0.00  -0.00    -0.00   0.00  -0.00
  12   1     0.00  -0.00   0.00     0.00   0.00   0.00    -0.00  -0.00   0.00
  13   1     0.04   0.07   0.07     0.01   0.01  -0.00     0.01  -0.00   0.00
  14   8    -0.02  -0.03  -0.01    -0.01   0.00  -0.00     0.01   0.01  -0.01
  15   7     0.07   0.15   0.16    -0.01   0.00   0.02    -0.01  -0.00   0.02
  16   6     0.02  -0.26   0.02     0.00  -0.01   0.00    -0.00   0.01  -0.00
  17   6    -0.08   0.04  -0.26    -0.01   0.00  -0.02    -0.01   0.00  -0.01
  18   6    -0.07  -0.01  -0.08    -0.00   0.00  -0.01    -0.02  -0.01  -0.01
  19   6    -0.11   0.16  -0.06     0.00   0.01  -0.00     0.01  -0.01  -0.01
  20   6     0.06  -0.16   0.07    -0.00  -0.02   0.01     0.00  -0.00  -0.00
  21   6     0.05  -0.10   0.04     0.00   0.00   0.00    -0.01   0.01   0.01
  22   6    -0.06   0.19  -0.16    -0.01   0.00  -0.01    -0.00   0.00  -0.01
  23   6     0.10  -0.14   0.10     0.01  -0.01   0.00     0.02  -0.00   0.01
  24   6     0.04   0.11   0.09     0.00  -0.00   0.01     0.02  -0.01   0.00
  25   1    -0.10  -0.08  -0.03     0.00   0.00  -0.01     0.00   0.00  -0.01
  26   1     0.10   0.06  -0.02     0.00   0.00  -0.00    -0.01  -0.01   0.00
  27   1    -0.01   0.01  -0.02    -0.01   0.00  -0.01    -0.01   0.01  -0.00
  28   1    -0.02   0.06  -0.05     0.00  -0.01   0.00     0.00  -0.01   0.01
  29   1    -0.04   0.07  -0.05    -0.01   0.01  -0.01     0.00  -0.01   0.01
  30   1     0.26   0.16   0.10     0.02   0.01   0.01     0.00   0.00   0.00
  31   1    -0.19   0.02  -0.11    -0.02   0.00  -0.01    -0.00   0.00  -0.00
  32   1    -0.06   0.05  -0.07    -0.00   0.01  -0.01    -0.00   0.00  -0.00
  33   1    -0.10   0.05   0.10    -0.01   0.00   0.01    -0.01   0.00   0.02
  34   1     0.00  -0.08  -0.07     0.01  -0.00  -0.01     0.01   0.00  -0.01
  35   1     0.18  -0.26  -0.10     0.01  -0.01  -0.00     0.00  -0.00  -0.00
  36   1    -0.19   0.17   0.29    -0.01   0.01   0.01    -0.00   0.01   0.01
  37   1     0.01  -0.07   0.10     0.00  -0.00   0.00     0.01  -0.01  -0.00
  38   1     0.04  -0.04   0.04     0.01  -0.01   0.01     0.00  -0.01   0.01
  39   1     0.06  -0.05   0.05    -0.00   0.00   0.00    -0.01   0.00  -0.01
  40   1     0.03  -0.01   0.00    -0.00   0.00   0.00     0.00  -0.01   0.01
  41   1    -0.04  -0.05  -0.03     0.01   0.00  -0.01     0.01   0.00  -0.01
  42   1     0.05   0.07   0.09    -0.01   0.01   0.00    -0.00   0.00  -0.00
  43   8     0.00  -0.01  -0.00    -0.02   0.04   0.00    -0.05   0.21  -0.01
  44   6     0.00   0.00  -0.00     0.00  -0.04   0.02    -0.21  -0.27   0.11
  45   8     0.00   0.00  -0.00     0.00   0.00   0.02     0.06   0.05   0.13
  46   6    -0.01   0.01   0.01     0.03  -0.03  -0.05     0.32  -0.06  -0.28
  47   1     0.01  -0.01   0.01    -0.04   0.06  -0.05    -0.31   0.34  -0.41
  48   1     0.00  -0.00  -0.00    -0.02   0.02   0.01    -0.06  -0.04   0.22
  49   1    -0.00   0.01  -0.01     0.01  -0.03   0.07    -0.03  -0.19   0.33
  50   8    -0.00  -0.01  -0.01     0.00   0.00  -0.00     0.00   0.00  -0.00
  51   8    -0.00   0.00   0.01     0.07   0.00  -0.15    -0.01  -0.01   0.02
  52   6    -0.01   0.00  -0.00     0.24  -0.18  -0.01     0.00   0.05   0.01
  53   8     0.01  -0.01   0.01    -0.21   0.18  -0.15     0.03  -0.03   0.02
  54   6     0.00   0.01  -0.02    -0.01  -0.10   0.43    -0.02  -0.01  -0.07
  55   1    -0.02   0.01   0.01     0.40  -0.18  -0.29    -0.05   0.04   0.05
  56   1     0.01  -0.01   0.00    -0.32   0.23   0.01     0.08  -0.04  -0.02
  57   1     0.02  -0.01  -0.00    -0.32   0.17  -0.02     0.01   0.00   0.02
                     79                     80                     81
                        a                      a                      a 
 Frequencies --  1006.6492              1007.5350              1013.5858
 Red. masses --     5.7127                 5.7917                 6.1910
 Frc consts  --     0.0000                 0.0000                 0.0000
 IR Inten    --    30.7023                39.5702                 9.8777
 Raman Activ --     0.0000                 0.0000                 0.0000
 Depolar     --     0.0000                 0.0000                 0.0000
 Atom AN      X      Y      Z        X      Y      Z        X      Y      Z
   1  53     0.00  -0.00   0.00    -0.00  -0.00   0.00     0.00  -0.00   0.00
   2   6    -0.00   0.00   0.00     0.00   0.00   0.00     0.00   0.00   0.00
   3   6    -0.00   0.01   0.00    -0.00   0.01   0.00     0.00  -0.00  -0.00
   4   6     0.01  -0.01   0.00    -0.00   0.00   0.00    -0.00  -0.00  -0.00
   5   6     0.00   0.01  -0.01     0.00  -0.00  -0.00    -0.00   0.00  -0.00
   6   1     0.01  -0.00   0.01     0.01  -0.00   0.00    -0.01   0.00  -0.00
   7   6    -0.01  -0.01   0.00     0.00  -0.00   0.00    -0.00  -0.00   0.00
   8   1    -0.01   0.04   0.02     0.00  -0.01  -0.00    -0.00  -0.00   0.00
   9   6    -0.01  -0.00  -0.01    -0.00  -0.00  -0.00     0.00   0.00   0.00
  10   1     0.00   0.00  -0.00    -0.00   0.00   0.00     0.00  -0.00  -0.00
  11   1     0.01  -0.01   0.00    -0.00   0.00   0.00     0.00  -0.00  -0.00
  12   1    -0.00  -0.00  -0.00    -0.00  -0.00   0.00     0.00   0.00  -0.00
  13   1     0.02  -0.01  -0.00     0.00   0.00   0.00    -0.01   0.02   0.02
  14   8    -0.01   0.01  -0.01     0.01   0.00  -0.01     0.10   0.10  -0.13
  15   7    -0.01  -0.01   0.01    -0.01  -0.01   0.00    -0.17  -0.03   0.15
  16   6    -0.00  -0.00  -0.00     0.00   0.01   0.00    -0.02   0.01  -0.06
  17   6    -0.00   0.00   0.00     0.00   0.00   0.00    -0.05   0.07  -0.03
  18   6     0.02   0.01  -0.00    -0.01  -0.01  -0.00    -0.27  -0.07  -0.04
  19   6    -0.01   0.00   0.01     0.01  -0.00   0.00     0.10  -0.04  -0.11
  20   6     0.00  -0.00   0.00    -0.00   0.00  -0.01     0.06  -0.01   0.01
  21   6     0.01  -0.00  -0.02    -0.00   0.01   0.01    -0.19   0.11   0.17
  22   6     0.01  -0.00  -0.00     0.00  -0.00  -0.00    -0.01  -0.07  -0.04
  23   6    -0.02  -0.01   0.00     0.00   0.00  -0.00     0.21   0.09   0.02
  24   6    -0.02  -0.00   0.01     0.01  -0.01  -0.00     0.30  -0.06  -0.04
  25   1     0.00   0.01   0.00     0.00   0.00  -0.00     0.01  -0.02  -0.12
  26   1     0.02   0.01  -0.00    -0.01  -0.01   0.00    -0.19  -0.20   0.08
  27   1     0.01  -0.01   0.00    -0.00   0.01  -0.00    -0.12   0.18  -0.03
  28   1     0.00   0.00  -0.01     0.00  -0.01   0.00    -0.02  -0.05   0.10
  29   1    -0.00   0.01  -0.00    -0.00  -0.00   0.00     0.04  -0.16   0.11
  30   1     0.00   0.00   0.00    -0.00  -0.00  -0.00     0.06   0.04   0.04
  31   1    -0.01  -0.00  -0.00     0.00   0.00   0.00    -0.01   0.02  -0.00
  32   1     0.00   0.00  -0.00    -0.00  -0.00  -0.00    -0.03   0.01  -0.02
  33   1     0.01  -0.00  -0.02    -0.00   0.00   0.01    -0.16  -0.02   0.27
  34   1     0.00  -0.00  -0.00    -0.00   0.00   0.00     0.07   0.08  -0.02
  35   1    -0.00  -0.01  -0.01    -0.00   0.00   0.00    -0.00   0.05   0.03
  36   1    -0.00  -0.01  -0.00     0.00  -0.00  -0.00     0.03   0.01  -0.02
  37   1    -0.00   0.00   0.01     0.00   0.00  -0.00     0.05  -0.04  -0.06
  38   1    -0.00   0.01  -0.01     0.00  -0.00   0.00    -0.01  -0.16   0.08
  39   1     0.02  -0.01   0.02    -0.01   0.00  -0.00    -0.23   0.13  -0.18
  40   1    -0.00   0.01  -0.01    -0.00  -0.00   0.00     0.06  -0.18   0.17
  41   1     0.00   0.00  -0.00     0.00   0.00  -0.00     0.10  -0.02  -0.05
  42   1    -0.01   0.00   0.00    -0.00  -0.00  -0.00     0.04   0.01  -0.02
  43   8    -0.16   0.17   0.01     0.03  -0.01  -0.00    -0.01  -0.00   0.01
  44   6     0.35   0.11   0.03    -0.10  -0.05   0.00     0.04   0.02  -0.01
  45   8    -0.06  -0.04   0.08     0.02   0.01  -0.01    -0.01  -0.01  -0.01
  46   6    -0.14  -0.36  -0.17     0.06   0.07   0.02    -0.03  -0.02   0.01
  47   1     0.07   0.13   0.09    -0.04  -0.00  -0.06     0.03  -0.02   0.04
  48   1    -0.17   0.37  -0.36     0.03  -0.09   0.10    -0.00   0.02  -0.04
  49   1     0.26  -0.12   0.39    -0.06   0.01  -0.06     0.02   0.01   0.00
  50   8    -0.00   0.00   0.00     0.00   0.00  -0.00     0.01  -0.00  -0.00
  51   8     0.01   0.02   0.02     0.05   0.09   0.03    -0.00  -0.00  -0.00
  52   6    -0.07  -0.08  -0.02    -0.26  -0.39  -0.11    -0.00   0.00  -0.00
  53   8     0.02   0.00   0.01     0.04   0.06   0.02     0.01  -0.01   0.00
  54   6     0.04   0.08  -0.01     0.21   0.33   0.08    -0.00  -0.00  -0.00
  55   1    -0.06  -0.02   0.01    -0.12  -0.16  -0.04    -0.00   0.00   0.00
  56   1    -0.08   0.00   0.04    -0.44   0.08   0.18     0.00  -0.00  -0.00
  57   1     0.10  -0.08  -0.05     0.34  -0.30  -0.24    -0.00   0.00   0.00
                     82                     83                     84
                        a                      a                      a 
 Frequencies --  1018.8287              1026.9737              1052.2095
 Red. masses --     4.4815                 3.7802                 9.9131
 Frc consts  --     0.0000                 0.0000                 0.0000
 IR Inten    --     4.6389                 1.2492                18.0321
 Raman Activ --     0.0000                 0.0000                 0.0000
 Depolar     --     0.0000                 0.0000                 0.0000
 Atom AN      X      Y      Z        X      Y      Z        X      Y      Z
   1  53    -0.00   0.00   0.00     0.00  -0.00   0.00     0.00  -0.01   0.00
   2   6     0.00   0.00   0.00    -0.01  -0.01  -0.01     0.00   0.00   0.01
   3   6     0.01  -0.01  -0.00    -0.01   0.00   0.01     0.02   0.02   0.01
   4   6    -0.00   0.00   0.00     0.00   0.00  -0.01     0.01   0.01   0.01
   5   6    -0.00   0.00  -0.00     0.00  -0.01   0.01     0.00   0.02  -0.04
   6   1    -0.03   0.02   0.01     0.03  -0.02  -0.01     0.02   0.01   0.05
   7   6    -0.00  -0.00   0.00     0.00   0.01  -0.00    -0.01  -0.03   0.02
   8   1     0.00  -0.00  -0.00    -0.00   0.00  -0.00     0.02   0.01   0.01
   9   6    -0.00   0.00   0.00     0.01   0.00   0.00    -0.03  -0.03  -0.03
  10   1     0.01  -0.00  -0.00    -0.01   0.00   0.00     0.01   0.02  -0.01
  11   1     0.00  -0.00  -0.00    -0.00   0.00  -0.00     0.01  -0.01   0.03
  12   1     0.00  -0.00   0.00     0.00   0.00   0.00    -0.01  -0.01  -0.00
  13   1     0.01   0.04   0.05     0.04   0.06   0.05     0.08   0.01  -0.04
  14   8     0.03   0.00  -0.02    -0.06  -0.05   0.06    -0.20  -0.26   0.31
  15   7    -0.06   0.07   0.05     0.10   0.04  -0.03     0.21   0.34  -0.40
  16   6    -0.06  -0.17   0.01     0.04   0.08  -0.03     0.04  -0.03  -0.02
  17   6    -0.04   0.00   0.09     0.01  -0.01  -0.08     0.04   0.01   0.01
  18   6     0.09   0.19  -0.03    -0.03  -0.08   0.04    -0.00  -0.06   0.14
  19   6    -0.14   0.05   0.03    -0.09  -0.02   0.20     0.06   0.00  -0.13
  20   6     0.08  -0.12   0.09     0.09   0.08  -0.27    -0.10   0.05   0.10
  21   6     0.07  -0.03  -0.18     0.02  -0.04   0.14    -0.03  -0.14   0.05
  22   6    -0.14  -0.24   0.07    -0.13   0.02  -0.05    -0.11  -0.03  -0.03
  23   6     0.09   0.12  -0.01     0.12   0.06  -0.02     0.08   0.09  -0.00
  24   6    -0.09  -0.02   0.08    -0.00   0.04  -0.07     0.02   0.11  -0.10
  25   1     0.03   0.01  -0.07    -0.12  -0.09   0.05    -0.07  -0.05   0.07
  26   1     0.21   0.11   0.03    -0.05  -0.02  -0.01     0.00   0.01   0.02
  27   1     0.09  -0.12   0.03     0.17  -0.27   0.05    -0.10   0.17  -0.02
  28   1    -0.02   0.11  -0.09     0.04   0.02  -0.12    -0.03   0.00   0.07
  29   1    -0.01   0.09  -0.06    -0.04   0.20  -0.14     0.05  -0.14   0.10
  30   1     0.21   0.13   0.09    -0.20  -0.09   0.06    -0.03  -0.04  -0.09
  31   1    -0.14   0.02  -0.08     0.31   0.11   0.29    -0.08  -0.07  -0.10
  32   1    -0.03   0.04  -0.04    -0.29  -0.16  -0.05     0.20   0.05   0.06
  33   1     0.09  -0.04  -0.12    -0.06   0.07   0.05    -0.00  -0.02  -0.01
  34   1     0.10  -0.00  -0.14    -0.06  -0.07   0.01    -0.07  -0.05   0.08
  35   1    -0.12   0.32   0.19     0.04   0.03   0.05     0.01   0.06   0.06
  36   1     0.14   0.02  -0.12    -0.04   0.14   0.13    -0.00   0.09   0.06
  37   1     0.19  -0.13  -0.24     0.12  -0.12  -0.07     0.11  -0.11  -0.08
  38   1    -0.04  -0.07   0.01     0.00  -0.09   0.06    -0.03  -0.05  -0.01
  39   1    -0.15   0.08  -0.14    -0.13   0.08  -0.11    -0.10   0.06  -0.10
  40   1     0.05  -0.13   0.11     0.02  -0.09   0.09     0.05  -0.10   0.08
  41   1     0.02  -0.03  -0.09    -0.09  -0.08  -0.02    -0.10  -0.02   0.07
  42   1    -0.08   0.07   0.04     0.08  -0.02   0.03     0.12  -0.05   0.00
  43   8     0.00  -0.00  -0.00    -0.00   0.00  -0.00     0.00   0.01  -0.00
  44   6    -0.01  -0.01   0.00     0.01   0.01   0.00    -0.00   0.01   0.00
  45   8     0.00   0.00   0.00    -0.00  -0.00   0.00     0.00   0.00   0.00
  46   6     0.01   0.01  -0.00    -0.00  -0.01  -0.01     0.00  -0.02  -0.01
  47   1    -0.00   0.00  -0.01     0.00   0.00   0.00    -0.00   0.01  -0.00
  48   1     0.00  -0.01   0.01    -0.01   0.01  -0.01    -0.01   0.01  -0.01
  49   1    -0.00  -0.00  -0.00     0.01  -0.00   0.01     0.01  -0.01   0.02
  50   8     0.01  -0.01  -0.01    -0.01  -0.00  -0.01     0.02  -0.00  -0.01
  51   8    -0.00   0.00   0.00     0.00  -0.00   0.00     0.00  -0.00   0.01
  52   6    -0.00  -0.00  -0.00    -0.00   0.00   0.00    -0.01  -0.00  -0.00
  53   8     0.01  -0.00   0.00    -0.01   0.01  -0.00    -0.02   0.02  -0.00
  54   6    -0.00   0.01  -0.01     0.00  -0.00   0.00     0.01  -0.00   0.00
  55   1    -0.01   0.00   0.01     0.01  -0.00  -0.01     0.01  -0.01  -0.01
  56   1     0.00  -0.00   0.00    -0.00   0.00  -0.00    -0.01   0.00   0.00
  57   1     0.01  -0.01  -0.00    -0.00   0.00  -0.00     0.00  -0.00  -0.00
                     85                     86                     87
                        a                      a                      a 
 Frequencies --  1059.3692              1070.8943              1071.5861
 Red. masses --    11.1029                 5.6102                 7.7086
 Frc consts  --     0.0000                 0.0000                 0.0000
 IR Inten    --     0.2214                 2.5125                 9.1961
 Raman Activ --     0.0000                 0.0000                 0.0000
 Depolar     --     0.0000                 0.0000                 0.0000
 Atom AN      X      Y      Z        X      Y      Z        X      Y      Z
   1  53     0.01   0.01   0.01     0.00   0.01   0.00     0.00   0.00   0.01
   2   6    -0.22  -0.19  -0.27    -0.18  -0.14  -0.21    -0.08  -0.07  -0.10
   3   6    -0.18  -0.32   0.07    -0.03  -0.17   0.20    -0.02  -0.08   0.10
   4   6    -0.04   0.10  -0.34     0.07   0.20  -0.13     0.03   0.09  -0.06
   5   6     0.01  -0.17   0.36     0.06   0.13  -0.07     0.03   0.06  -0.03
   6   1    -0.08  -0.09  -0.01     0.10  -0.04   0.33     0.05  -0.02   0.15
   7   6     0.16   0.32  -0.15    -0.01  -0.10   0.14    -0.00  -0.04   0.06
   8   1    -0.05   0.03  -0.10     0.28   0.30   0.02     0.13   0.14   0.01
   9   6     0.23   0.21   0.28    -0.10  -0.09  -0.14    -0.04  -0.04  -0.06
  10   1    -0.03  -0.10   0.09     0.20   0.27   0.05     0.09   0.12   0.03
  11   1     0.03   0.09  -0.11     0.09  -0.00   0.29     0.04   0.00   0.13
  12   1     0.08   0.06   0.08    -0.03  -0.01  -0.05    -0.01  -0.00  -0.02
  13   1     0.01  -0.00  -0.01     0.00   0.01  -0.01    -0.04  -0.02   0.04
  14   8    -0.02  -0.02   0.02    -0.04  -0.05   0.06     0.13   0.16  -0.19
  15   7     0.02   0.03  -0.03     0.13   0.05  -0.09    -0.31  -0.17   0.26
  16   6    -0.00  -0.01   0.00    -0.03  -0.00  -0.01     0.06   0.01   0.02
  17   6     0.00   0.00   0.00    -0.03   0.02   0.01     0.06  -0.04  -0.02
  18   6    -0.00  -0.00   0.01    -0.08   0.06  -0.01     0.17  -0.13   0.01
  19   6     0.00   0.00  -0.01    -0.04  -0.02   0.04     0.07   0.04  -0.06
  20   6    -0.01  -0.00   0.01     0.06  -0.04  -0.02    -0.11   0.08   0.04
  21   6    -0.00  -0.01  -0.00    -0.09   0.05  -0.03     0.19  -0.08   0.07
  22   6    -0.01  -0.00  -0.00     0.07  -0.00   0.03    -0.14   0.02  -0.05
  23   6     0.00   0.00   0.00    -0.03  -0.02   0.03     0.05   0.04  -0.07
  24   6     0.00   0.01  -0.00     0.07  -0.06   0.03    -0.16   0.11  -0.06
  25   1    -0.00  -0.00   0.00     0.04   0.01  -0.08    -0.07  -0.02   0.16
  26   1     0.00   0.00   0.00    -0.03  -0.06   0.06     0.05   0.12  -0.12
  27   1    -0.01   0.02  -0.00     0.04  -0.06   0.02    -0.08   0.11  -0.03
  28   1    -0.00   0.00   0.01    -0.00   0.04  -0.03     0.01  -0.08   0.06
  29   1     0.00  -0.01   0.01     0.00   0.03  -0.02    -0.01  -0.05   0.04
  30   1     0.01   0.00  -0.01     0.05   0.04   0.05    -0.10  -0.08  -0.10
  31   1    -0.01  -0.01  -0.01     0.01   0.03   0.03    -0.01  -0.06  -0.05
  32   1     0.02   0.01   0.00    -0.09  -0.01  -0.04     0.15   0.02   0.06
  33   1     0.00  -0.00  -0.00    -0.03  -0.05   0.07     0.06   0.11  -0.14
  34   1    -0.00  -0.00   0.00     0.06   0.06  -0.03    -0.12  -0.13   0.07
  35   1    -0.00   0.00   0.00    -0.02  -0.02  -0.03     0.04   0.02   0.05
  36   1     0.00   0.00   0.00     0.02  -0.07  -0.06    -0.04   0.14   0.13
  37   1     0.01  -0.01  -0.01    -0.06   0.06   0.03     0.11  -0.11  -0.06
  38   1    -0.00  -0.00  -0.00    -0.01   0.03  -0.03     0.02  -0.06   0.06
  39   1    -0.00   0.00  -0.00     0.04  -0.03   0.03    -0.08   0.06  -0.06
  40   1     0.00  -0.00   0.00     0.01   0.01  -0.02    -0.02  -0.02   0.03
  41   1    -0.00   0.00   0.00     0.06   0.01  -0.03    -0.13  -0.01   0.07
  42   1     0.01  -0.00   0.00    -0.03   0.02  -0.00     0.06  -0.04   0.01
  43   8     0.00   0.01   0.00    -0.01   0.02   0.00    -0.01   0.01   0.00
  44   6     0.00   0.01  -0.00    -0.00  -0.02  -0.00     0.00  -0.01  -0.00
  45   8     0.00  -0.00   0.00     0.00  -0.00  -0.01     0.00  -0.00  -0.01
  46   6     0.00  -0.01  -0.00     0.00   0.01   0.01    -0.00   0.00   0.00
  47   1     0.00   0.00   0.00     0.00  -0.01   0.00     0.00  -0.00   0.00
  48   1    -0.00   0.01  -0.01     0.00  -0.01   0.01     0.00  -0.00   0.00
  49   1     0.01  -0.00   0.01    -0.01   0.00  -0.01    -0.00   0.00  -0.01
  50   8     0.01   0.00   0.00    -0.01  -0.00   0.00     0.01  -0.00  -0.01
  51   8     0.00   0.00   0.00     0.00   0.00  -0.00     0.00   0.00  -0.00
  52   6    -0.00  -0.01  -0.00    -0.00   0.00  -0.00     0.00   0.00  -0.00
  53   8    -0.00   0.01   0.00    -0.01   0.00   0.00     0.01  -0.01   0.00
  54   6     0.00   0.00  -0.00    -0.00  -0.00   0.00    -0.00  -0.00   0.00
  55   1    -0.00  -0.00   0.00     0.00  -0.00  -0.00     0.00   0.00  -0.00
  56   1    -0.00  -0.00   0.00    -0.00   0.00  -0.00     0.00   0.00  -0.00
  57   1     0.00  -0.00  -0.00    -0.00   0.00   0.00    -0.00   0.00   0.00
                     88                     89                     90
                        a                      a                      a 
 Frequencies --  1097.5439              1108.8017              1112.9972
 Red. masses --     3.9253                 5.3702                 4.2333
 Frc consts  --     0.0000                 0.0000                 0.0000
 IR Inten    --    12.0192                 9.3995                 5.5577
 Raman Activ --     0.0000                 0.0000                 0.0000
 Depolar     --     0.0000                 0.0000                 0.0000
 Atom AN      X      Y      Z        X      Y      Z        X      Y      Z
   1  53     0.00   0.00   0.00     0.00   0.00  -0.00     0.00   0.01  -0.01
   2   6     0.00   0.00   0.00    -0.00  -0.00  -0.00    -0.04  -0.08   0.05
   3   6     0.00  -0.00  -0.00     0.00   0.00   0.00     0.15   0.19   0.10
   4   6    -0.00  -0.00  -0.00    -0.00   0.00  -0.01    -0.10  -0.02  -0.28
   5   6    -0.00   0.00  -0.00    -0.00  -0.00  -0.00    -0.04   0.04  -0.20
   6   1    -0.02   0.01   0.01     0.00   0.00   0.01     0.22   0.06   0.39
   7   6     0.00   0.00   0.00     0.00   0.01  -0.00     0.12   0.17   0.01
   8   1    -0.01  -0.01  -0.00    -0.01  -0.01  -0.00    -0.30  -0.26  -0.14
   9   6    -0.00   0.00   0.00    -0.00  -0.00   0.01    -0.04  -0.13   0.13
  10   1     0.00  -0.00  -0.00    -0.00  -0.01  -0.00    -0.13  -0.13  -0.10
  11   1     0.00  -0.00  -0.00     0.00   0.00   0.00     0.14   0.07   0.23
  12   1     0.00  -0.00   0.00    -0.00  -0.01   0.01    -0.10  -0.31   0.31
  13   1     0.05   0.09   0.10    -0.00  -0.00  -0.00    -0.02   0.01   0.02
  14   8    -0.00  -0.01   0.00     0.00   0.01   0.00     0.01   0.01  -0.01
  15   7    -0.01  -0.02  -0.04     0.00   0.01   0.01    -0.01  -0.02   0.01
  16   6    -0.22   0.11  -0.05     0.04  -0.04  -0.09    -0.00  -0.00  -0.00
  17   6     0.22  -0.12   0.05    -0.09  -0.07  -0.02     0.01  -0.01  -0.00
  18   6     0.03   0.11  -0.02     0.22   0.16   0.12    -0.01  -0.01  -0.01
  19   6     0.03  -0.11   0.03    -0.04   0.02   0.07     0.00   0.00   0.00
  20   6     0.14  -0.13   0.04    -0.06  -0.00   0.08     0.00   0.00   0.00
  21   6    -0.02  -0.00   0.09    -0.11   0.16   0.22     0.00  -0.00  -0.01
  22   6    -0.15   0.09  -0.07     0.08   0.06  -0.02     0.00   0.00   0.01
  23   6    -0.06   0.06  -0.09     0.06   0.06   0.01    -0.01   0.00   0.00
  24   6    -0.02  -0.09  -0.07    -0.09  -0.27  -0.28     0.00   0.01   0.01
  25   1     0.30   0.23  -0.09     0.09   0.05   0.00    -0.00  -0.00  -0.00
  26   1    -0.16  -0.12   0.04     0.26   0.17   0.01    -0.01  -0.00  -0.00
  27   1     0.02  -0.03   0.02     0.05  -0.09   0.01    -0.00  -0.00  -0.00
  28   1     0.00   0.01   0.01     0.02  -0.01  -0.05     0.00  -0.01  -0.00
  29   1     0.03  -0.05   0.03    -0.03   0.08  -0.06    -0.00   0.01  -0.00
  30   1     0.20   0.14   0.13     0.02  -0.00  -0.05    -0.00  -0.00  -0.00
  31   1    -0.06   0.06   0.00    -0.07  -0.04  -0.07     0.01  -0.00   0.00
  32   1    -0.12   0.02  -0.07     0.11   0.04   0.03    -0.01   0.00  -0.00
  33   1     0.12  -0.01  -0.16    -0.17   0.07   0.23     0.00  -0.00  -0.00
  34   1    -0.22   0.01   0.32    -0.06   0.02   0.07     0.01   0.00  -0.01
  35   1     0.07  -0.03   0.02     0.02  -0.07  -0.06    -0.00   0.00   0.00
  36   1    -0.08   0.17   0.18    -0.03  -0.04  -0.00     0.00  -0.00  -0.00
  37   1     0.09  -0.11  -0.02    -0.07   0.05   0.07    -0.01   0.01   0.00
  38   1    -0.01   0.02  -0.01    -0.02  -0.04   0.00    -0.00   0.00  -0.01
  39   1    -0.01   0.01  -0.02    -0.08   0.04  -0.07     0.00  -0.00   0.00
  40   1    -0.03   0.04  -0.04     0.03  -0.07   0.06     0.00   0.00  -0.00
  41   1     0.08   0.19   0.19    -0.05  -0.16  -0.17     0.00   0.01   0.01
  42   1    -0.05  -0.14  -0.15    -0.11  -0.32  -0.35     0.00   0.01   0.01
  43   8    -0.00  -0.00  -0.00     0.00  -0.00  -0.00     0.02  -0.03  -0.00
  44   6     0.00  -0.00  -0.00    -0.00   0.00   0.00    -0.00   0.03  -0.00
  45   8     0.00   0.00   0.00     0.00   0.00   0.00    -0.00   0.00   0.01
  46   6    -0.00   0.00  -0.00    -0.00   0.00  -0.00     0.00  -0.01  -0.00
  47   1     0.00   0.00   0.00    -0.00  -0.00  -0.00    -0.00   0.00  -0.00
  48   1    -0.00   0.00  -0.00    -0.00   0.00  -0.00    -0.00   0.01  -0.00
  49   1     0.00   0.00   0.00    -0.00  -0.00   0.00     0.00  -0.00   0.01
  50   8    -0.00  -0.01  -0.01    -0.00  -0.00   0.00    -0.01  -0.00   0.00
  51   8    -0.00  -0.00   0.00     0.00  -0.00  -0.00     0.00  -0.00  -0.01
  52   6     0.00  -0.00   0.00     0.00  -0.00   0.00    -0.00   0.01  -0.00
  53   8    -0.00   0.00  -0.00    -0.00   0.00   0.00     0.00  -0.01   0.01
  54   6    -0.00  -0.00  -0.00    -0.00  -0.00   0.00    -0.00  -0.00   0.00
  55   1    -0.00   0.00   0.00     0.00  -0.00  -0.00     0.00  -0.00  -0.00
  56   1     0.00  -0.00  -0.00    -0.00   0.00  -0.00    -0.00   0.00   0.00
  57   1    -0.00   0.00   0.00    -0.00   0.00   0.00    -0.00   0.00   0.00
                     91                     92                     93
                        a                      a                      a 
 Frequencies --  1139.6333              1171.2829              1180.5058
 Red. masses --     6.9363                10.8802                 7.3017
 Frc consts  --     0.0000                 0.0000                 0.0000
 IR Inten    --    14.2063               733.0694                20.8610
 Raman Activ --     0.0000                 0.0000                 0.0000
 Depolar     --     0.0000                 0.0000                 0.0000
 Atom AN      X      Y      Z        X      Y      Z        X      Y      Z
   1  53    -0.00   0.00  -0.00    -0.01   0.01   0.00     0.00  -0.00   0.00
   2   6    -0.00  -0.00   0.00    -0.00  -0.00  -0.00    -0.00  -0.00  -0.01
   3   6     0.01   0.01   0.00    -0.01   0.00  -0.00    -0.00   0.00  -0.01
   4   6    -0.00  -0.00  -0.01    -0.01  -0.01  -0.02    -0.01  -0.02  -0.01
   5   6     0.00   0.01  -0.01     0.01   0.02  -0.00     0.02   0.02   0.00
   6   1     0.00   0.00  -0.00    -0.01  -0.01  -0.07    -0.03  -0.00  -0.08
   7   6     0.00   0.00   0.00     0.01   0.00   0.01     0.01   0.00   0.02
   8   1    -0.01  -0.01  -0.00    -0.04  -0.03  -0.01    -0.04  -0.04  -0.01
   9   6    -0.00  -0.00   0.00     0.00  -0.00   0.01    -0.00  -0.01   0.01
  10   1     0.00   0.01  -0.00     0.05   0.06   0.02     0.07   0.09   0.03
  11   1     0.01   0.00   0.01     0.02   0.00   0.04     0.01   0.00   0.03
  12   1    -0.01  -0.01   0.01    -0.01  -0.03   0.03    -0.01  -0.05   0.05
  13   1    -0.06  -0.13  -0.14     0.00   0.02  -0.01     0.06  -0.00  -0.05
  14   8    -0.01  -0.01  -0.01    -0.00  -0.00   0.00    -0.00  -0.01   0.01
  15   7     0.01  -0.00  -0.00    -0.01  -0.00   0.00     0.03   0.03  -0.01
  16   6     0.16   0.09   0.28    -0.01  -0.06  -0.07     0.02   0.26   0.26
  17   6    -0.04   0.32   0.14     0.04   0.06   0.06    -0.14  -0.23  -0.26
  18   6     0.22   0.09   0.06    -0.04   0.01   0.02     0.18  -0.05  -0.05
  19   6    -0.09  -0.05  -0.15     0.01   0.03   0.03    -0.02  -0.11  -0.13
  20   6    -0.07  -0.12  -0.10     0.00   0.04   0.03    -0.01  -0.14  -0.09
  21   6    -0.14   0.10   0.16    -0.05   0.00   0.00     0.19  -0.02  -0.01
  22   6    -0.00  -0.10  -0.13    -0.02  -0.02  -0.03     0.06   0.07   0.13
  23   6     0.02  -0.17  -0.08    -0.01  -0.03  -0.03     0.05   0.12   0.12
  24   6    -0.06  -0.16  -0.18     0.06  -0.01  -0.01    -0.23   0.07   0.01
  25   1     0.02   0.01   0.05    -0.02  -0.02  -0.02     0.06   0.08   0.09
  26   1    -0.09  -0.07   0.03     0.03   0.01   0.02    -0.12  -0.03  -0.08
  27   1     0.02   0.09   0.05    -0.00  -0.02  -0.01     0.01   0.08   0.05
  28   1    -0.08   0.22   0.00     0.02  -0.05  -0.01    -0.07   0.15   0.03
  29   1     0.10  -0.13   0.08    -0.03   0.04  -0.03     0.12  -0.16   0.11
  30   1     0.02   0.03   0.05    -0.02  -0.02  -0.03     0.07   0.07   0.09
  31   1    -0.05   0.02   0.00     0.01  -0.01  -0.00    -0.06   0.05   0.01
  32   1    -0.16  -0.03  -0.07     0.05   0.01   0.02    -0.18  -0.03  -0.08
  33   1     0.07   0.01  -0.10     0.01  -0.03  -0.01    -0.08   0.10   0.07
  34   1    -0.00   0.04   0.02     0.00   0.02   0.02    -0.00  -0.10  -0.09
  35   1     0.05  -0.02   0.00     0.02  -0.00   0.01    -0.07   0.02  -0.02
  36   1     0.01   0.05   0.03     0.00   0.03   0.02     0.01  -0.10  -0.08
  37   1     0.11  -0.11  -0.08     0.03  -0.03  -0.02    -0.11   0.12   0.07
  38   1     0.14  -0.04   0.17     0.03   0.00   0.03    -0.10  -0.01  -0.12
  39   1     0.04   0.02   0.12     0.01   0.01   0.03    -0.04  -0.02  -0.11
  40   1    -0.11   0.14  -0.09    -0.03   0.04  -0.03     0.13  -0.16   0.11
  41   1    -0.07  -0.19  -0.20     0.02  -0.00  -0.01    -0.08   0.01   0.02
  42   1     0.04   0.11   0.11     0.01   0.00  -0.00    -0.02  -0.02   0.01
  43   8    -0.00   0.00   0.00    -0.03   0.05   0.02    -0.01   0.02   0.01
  44   6     0.00  -0.01  -0.00     0.06  -0.09   0.03     0.02  -0.03   0.01
  45   8     0.00   0.00   0.00    -0.00  -0.00  -0.03     0.00  -0.00  -0.01
  46   6    -0.00   0.00  -0.00    -0.02   0.03  -0.00    -0.01   0.01  -0.00
  47   1     0.00  -0.00   0.00     0.01  -0.01   0.01     0.00  -0.00   0.00
  48   1     0.00  -0.00   0.00     0.01  -0.01  -0.00     0.00  -0.00  -0.00
  49   1    -0.00   0.00  -0.00    -0.01   0.02  -0.04    -0.00   0.01  -0.01
  50   8     0.00   0.01   0.01     0.00   0.00  -0.00    -0.00   0.00   0.00
  51   8     0.00  -0.00   0.00    -0.10   0.03   0.14    -0.02   0.01   0.04
  52   6    -0.00   0.00  -0.00     0.57  -0.42   0.19     0.13  -0.09   0.04
  53   8     0.00  -0.00   0.00    -0.19   0.19  -0.27    -0.05   0.05  -0.06
  54   6     0.00  -0.00   0.00    -0.18   0.14  -0.11    -0.04   0.03  -0.02
  55   1     0.00  -0.00  -0.00    -0.25   0.11   0.17    -0.05   0.02   0.04
  56   1     0.00  -0.00  -0.00     0.07  -0.07   0.02     0.01  -0.01   0.00
  57   1    -0.00   0.00  -0.00     0.08  -0.04   0.03     0.02  -0.01   0.01
                     94                     95                     96
                        a                      a                      a 
 Frequencies --  1182.3596              1185.1215              1197.6602
 Red. masses --     1.9367                 2.6556                 5.1324
 Frc consts  --     0.0000                 0.0000                 0.0000
 IR Inten    --    23.2568                96.5859                23.5747
 Raman Activ --     0.0000                 0.0000                 0.0000
 Depolar     --     0.0000                 0.0000                 0.0000
 Atom AN      X      Y      Z        X      Y      Z        X      Y      Z
   1  53    -0.00  -0.00  -0.00    -0.00   0.00  -0.00    -0.00   0.00  -0.00
   2   6     0.03   0.03   0.03     0.03   0.02   0.07    -0.00  -0.01   0.01
   3   6     0.07   0.05   0.09     0.03   0.01   0.07     0.00   0.01   0.01
   4   6    -0.02   0.00  -0.03     0.06   0.07   0.05    -0.00   0.00  -0.00
   5   6    -0.02  -0.02  -0.02    -0.09  -0.12  -0.03    -0.00  -0.00  -0.00
   6   1     0.03   0.02   0.06     0.18   0.02   0.42     0.01  -0.00   0.01
   7   6    -0.03   0.01  -0.12    -0.03  -0.00  -0.08     0.00   0.00  -0.00
   8   1     0.26   0.29   0.07     0.18   0.19   0.06     0.01   0.01   0.00
   9   6    -0.02  -0.07   0.07     0.01   0.04  -0.05    -0.00   0.00  -0.00
  10   1     0.06   0.08   0.02    -0.39  -0.49  -0.15    -0.02  -0.02  -0.01
  11   1    -0.24  -0.04  -0.57    -0.05  -0.01  -0.12     0.00   0.00   0.01
  12   1    -0.13  -0.41   0.42     0.08   0.24  -0.24     0.00   0.01  -0.01
  13   1     0.01   0.00   0.00     0.02   0.02   0.01    -0.13  -0.28  -0.30
  14   8    -0.00   0.00   0.00     0.00   0.00  -0.00    -0.00  -0.00  -0.00
  15   7    -0.00  -0.00  -0.00    -0.00  -0.01  -0.01     0.06   0.07   0.08
  16   6    -0.00   0.00  -0.00     0.01   0.04   0.04     0.24   0.01   0.00
  17   6    -0.00   0.00   0.00    -0.01  -0.04  -0.04    -0.32   0.16   0.12
  18   6    -0.00  -0.00   0.00     0.03  -0.01  -0.00    -0.17   0.03  -0.09
  19   6     0.00  -0.00   0.00    -0.01  -0.02  -0.02    -0.09  -0.01   0.03
  20   6     0.00   0.00   0.00     0.00  -0.02  -0.01    -0.06  -0.02  -0.02
  21   6    -0.00  -0.00   0.00     0.02   0.01   0.00     0.16  -0.17  -0.00
  22   6     0.00  -0.00  -0.00     0.01   0.01   0.02     0.08  -0.06  -0.05
  23   6     0.00  -0.00  -0.00     0.00   0.02   0.02     0.11  -0.03  -0.05
  24   6     0.00   0.00  -0.00    -0.03   0.00  -0.00     0.01   0.11   0.07
  25   1    -0.00  -0.00   0.00     0.01   0.01   0.02     0.05   0.04  -0.10
  26   1    -0.00  -0.00   0.00    -0.03  -0.01  -0.01    -0.01  -0.03   0.03
  27   1     0.00  -0.00   0.00     0.00   0.01   0.01     0.04  -0.06   0.02
  28   1     0.00  -0.00   0.00    -0.01   0.03   0.01    -0.01   0.10  -0.07
  29   1    -0.00   0.00  -0.00     0.02  -0.02   0.02     0.02   0.05  -0.03
  30   1    -0.00  -0.00  -0.00     0.01   0.01   0.01    -0.02  -0.02  -0.03
  31   1    -0.00   0.00  -0.00    -0.01   0.01  -0.00    -0.03  -0.02  -0.04
  32   1    -0.00   0.00  -0.00    -0.04   0.00  -0.02    -0.03   0.01  -0.02
  33   1     0.00  -0.00  -0.00    -0.01   0.01   0.01     0.01   0.05  -0.04
  34   1     0.00  -0.00  -0.00     0.00  -0.01  -0.01    -0.05  -0.11   0.02
  35   1    -0.00  -0.00  -0.00    -0.01   0.00  -0.00     0.01  -0.06  -0.04
  36   1    -0.00   0.00   0.00     0.00  -0.01  -0.01     0.01  -0.06  -0.04
  37   1     0.00  -0.00  -0.00    -0.02   0.02   0.01     0.03  -0.03  -0.01
  38   1     0.00   0.00   0.00    -0.01   0.00  -0.02     0.06  -0.10   0.13
  39   1    -0.00   0.00   0.00    -0.00  -0.00  -0.01    -0.04   0.04  -0.02
  40   1    -0.00   0.00  -0.00     0.02  -0.02   0.01    -0.04  -0.01   0.03
  41   1    -0.00  -0.00   0.00    -0.01  -0.01  -0.01     0.08   0.30   0.33
  42   1     0.00  -0.00   0.00     0.00   0.01   0.01    -0.07  -0.24  -0.25
  43   8    -0.05   0.08   0.02    -0.06   0.10   0.03    -0.01   0.01   0.00
  44   6     0.07  -0.12   0.03     0.10  -0.16   0.05     0.01  -0.02   0.01
  45   8    -0.00  -0.00  -0.04    -0.00  -0.00  -0.05     0.00  -0.00  -0.01
  46   6    -0.02   0.03  -0.00    -0.03   0.05  -0.00    -0.00   0.01  -0.00
  47   1     0.01  -0.01   0.01     0.01  -0.02   0.01     0.00  -0.00   0.00
  48   1     0.01  -0.01  -0.00     0.01  -0.01  -0.01     0.00  -0.00   0.00
  49   1    -0.01   0.02  -0.05    -0.02   0.03  -0.06    -0.00   0.00  -0.01
  50   8    -0.00   0.00  -0.00    -0.01  -0.00  -0.00     0.00   0.02   0.02
  51   8     0.00  -0.00  -0.00    -0.02   0.00   0.02    -0.00   0.00   0.00
  52   6    -0.01   0.01  -0.00     0.08  -0.06   0.02     0.00  -0.00   0.00
  53   8     0.00  -0.00   0.00    -0.03   0.03  -0.04    -0.00   0.00  -0.00
  54   6     0.00  -0.00   0.00    -0.03   0.02  -0.01    -0.00   0.00   0.00
  55   1     0.00  -0.00  -0.00    -0.03   0.01   0.02    -0.00   0.00   0.00
  56   1    -0.00   0.00  -0.00     0.01  -0.01   0.00     0.00  -0.00   0.00
  57   1    -0.00   0.00  -0.00     0.01  -0.00   0.00     0.00  -0.00  -0.00
                     97                     98                     99
                        a                      a                      a 
 Frequencies --  1216.3470              1219.9568              1233.4885
 Red. masses --     9.6215                10.2810                 5.1191
 Frc consts  --     0.0000                 0.0000                 0.0000
 IR Inten    --    56.9640               271.4834                34.6544
 Raman Activ --     0.0000                 0.0000                 0.0000
 Depolar     --     0.0000                 0.0000                 0.0000
 Atom AN      X      Y      Z        X      Y      Z        X      Y      Z
   1  53     0.00   0.00  -0.00     0.00   0.00  -0.00    -0.00  -0.00   0.00
   2   6    -0.01  -0.01  -0.00    -0.01  -0.02   0.00     0.00  -0.00   0.00
   3   6    -0.00   0.01  -0.02    -0.00   0.01  -0.03     0.00   0.00   0.01
   4   6    -0.03  -0.03  -0.01    -0.04  -0.05  -0.02     0.00   0.00  -0.00
   5   6     0.01   0.01   0.00     0.02   0.02   0.01    -0.00  -0.00  -0.00
   6   1    -0.04   0.00  -0.07    -0.05  -0.00  -0.12     0.00   0.00   0.01
   7   6     0.02   0.01   0.02     0.02   0.02   0.02    -0.00  -0.00  -0.00
   8   1    -0.05  -0.05  -0.01    -0.08  -0.07  -0.02     0.01   0.01   0.00
   9   6     0.00   0.01   0.00     0.01   0.01   0.00    -0.00   0.00  -0.00
  10   1     0.03   0.03   0.01     0.05   0.06   0.02    -0.01  -0.01  -0.00
  11   1     0.05   0.01   0.10     0.06   0.02   0.14    -0.00  -0.00  -0.00
  12   1     0.00   0.00  -0.00     0.00  -0.00   0.00    -0.00  -0.00   0.00
  13   1     0.04   0.02   0.07     0.05  -0.01  -0.04    -0.01  -0.01  -0.00
  14   8    -0.02   0.00   0.01    -0.00  -0.00   0.01    -0.00  -0.01  -0.01
  15   7     0.11  -0.05  -0.02    -0.08   0.04  -0.01    -0.02  -0.05  -0.05
  16   6    -0.38   0.06  -0.20     0.22  -0.04   0.14    -0.18   0.11   0.24
  17   6    -0.22   0.26   0.04     0.16  -0.17   0.00     0.31   0.22   0.01
  18   6     0.10  -0.11   0.09    -0.08   0.07  -0.07    -0.03  -0.06  -0.14
  19   6     0.12  -0.02   0.07    -0.07   0.01  -0.05     0.06  -0.04  -0.09
  20   6     0.13  -0.01   0.07    -0.07   0.01  -0.05     0.07  -0.03  -0.08
  21   6     0.06  -0.09   0.07    -0.06   0.07  -0.06    -0.05  -0.16  -0.05
  22   6     0.08  -0.08  -0.02    -0.06   0.06   0.00    -0.10  -0.08   0.01
  23   6     0.07  -0.09  -0.01    -0.05   0.06  -0.00    -0.10  -0.07  -0.01
  24   6    -0.11   0.14  -0.12     0.10  -0.10   0.09     0.02   0.07   0.06
  25   1     0.13   0.11   0.08    -0.12  -0.10  -0.05    -0.09  -0.04   0.02
  26   1    -0.06   0.01  -0.05     0.10   0.03   0.03     0.28   0.24  -0.11
  27   1    -0.02  -0.02  -0.03     0.01   0.02   0.02    -0.04   0.10   0.01
  28   1     0.05  -0.16   0.05    -0.03   0.09  -0.02    -0.02  -0.00   0.07
  29   1    -0.05   0.01  -0.01     0.03  -0.01   0.00     0.02  -0.09   0.06
  30   1     0.09   0.06   0.06    -0.08  -0.04  -0.02    -0.00   0.02   0.08
  31   1     0.01   0.03   0.03    -0.01  -0.00  -0.01     0.04   0.07   0.08
  32   1     0.03   0.03  -0.00    -0.00  -0.02   0.01    -0.11  -0.04  -0.03
  33   1    -0.05   0.06   0.03     0.04  -0.06  -0.02    -0.24  -0.05   0.35
  34   1     0.07  -0.08  -0.15    -0.04   0.07   0.11     0.08  -0.01  -0.08
  35   1    -0.01  -0.02  -0.02     0.00   0.01   0.01     0.01   0.09   0.09
  36   1     0.04  -0.06  -0.07    -0.04   0.04   0.06     0.05   0.08   0.01
  37   1     0.00   0.01  -0.03     0.02  -0.02   0.01     0.07  -0.06  -0.08
  38   1     0.07  -0.04   0.10    -0.04   0.04  -0.06     0.03   0.08  -0.02
  39   1     0.00   0.02   0.04    -0.01  -0.01  -0.02     0.09  -0.04   0.10
  40   1    -0.05   0.03  -0.01     0.02  -0.01  -0.00    -0.01   0.07  -0.08
  41   1    -0.14  -0.04   0.02     0.10   0.02  -0.02     0.02   0.09   0.10
  42   1     0.08  -0.00   0.02    -0.05  -0.01  -0.03    -0.07  -0.22  -0.23
  43   8    -0.12   0.21   0.06    -0.17   0.30   0.09     0.01  -0.02  -0.01
  44   6     0.21  -0.34   0.12     0.30  -0.49   0.17    -0.02   0.03  -0.01
  45   8    -0.00  -0.00  -0.11    -0.01  -0.00  -0.17     0.00   0.00   0.01
  46   6    -0.06   0.09  -0.01    -0.09   0.12  -0.02     0.00  -0.01   0.00
  47   1     0.01  -0.02   0.01     0.02  -0.03   0.02    -0.00   0.00  -0.00
  48   1     0.02  -0.02  -0.01     0.02  -0.02  -0.02    -0.00   0.00   0.00
  49   1    -0.03   0.05  -0.12    -0.04   0.08  -0.17     0.00  -0.00   0.01
  50   8    -0.01   0.00  -0.00     0.00   0.00   0.01    -0.00   0.00  -0.00
  51   8     0.01  -0.00  -0.02     0.02  -0.01  -0.02    -0.00  -0.00   0.00
  52   6    -0.08   0.05  -0.02    -0.10   0.07  -0.03     0.00  -0.00   0.00
  53   8     0.03  -0.03   0.03     0.04  -0.03   0.04    -0.00   0.00  -0.00
  54   6     0.02  -0.02   0.01     0.03  -0.02   0.01    -0.00   0.00  -0.00
  55   1     0.03  -0.01  -0.02     0.03  -0.02  -0.02    -0.00   0.00   0.00
  56   1    -0.00   0.01  -0.00    -0.01   0.01  -0.00     0.00  -0.00   0.00
  57   1    -0.01   0.00  -0.00    -0.01   0.00  -0.01     0.00  -0.00   0.00
                    100                    101                    102
                        a                      a                      a 
 Frequencies --  1242.1920              1252.8612              1263.0792
 Red. masses --     6.2298                 7.4988                 4.2618
 Frc consts  --     0.0000                 0.0000                 0.0000
 IR Inten    --    58.6986                37.9201                 9.0792
 Raman Activ --     0.0000                 0.0000                 0.0000
 Depolar     --     0.0000                 0.0000                 0.0000
 Atom AN      X      Y      Z        X      Y      Z        X      Y      Z
   1  53     0.00   0.00   0.00    -0.00   0.00   0.00     0.00  -0.00   0.00
   2   6     0.01   0.02  -0.02     0.00   0.01  -0.01    -0.04  -0.14   0.13
   3   6    -0.01  -0.01  -0.01    -0.01  -0.01  -0.02     0.14   0.08   0.23
   4   6     0.01   0.01   0.01     0.01   0.01   0.01    -0.19  -0.20  -0.13
   5   6    -0.00  -0.01   0.01     0.00  -0.00   0.01    -0.02   0.01  -0.07
   6   1     0.00   0.00   0.03    -0.00   0.00   0.02    -0.17   0.00  -0.44
   7   6    -0.00  -0.01   0.01    -0.00  -0.00   0.00     0.05   0.07   0.01
   8   1    -0.02  -0.03  -0.00    -0.03  -0.03  -0.01     0.28   0.33   0.06
   9   6    -0.00  -0.01   0.01    -0.00  -0.01   0.01     0.05   0.16  -0.16
  10   1     0.02   0.03   0.01     0.02   0.03   0.01    -0.21  -0.25  -0.10
  11   1    -0.01  -0.00  -0.03    -0.01  -0.00  -0.01     0.15   0.05   0.33
  12   1     0.00   0.01  -0.01     0.00   0.01  -0.01    -0.04  -0.13   0.13
  13   1     0.18   0.38   0.37     0.00   0.03   0.18     0.01   0.01   0.02
  14   8     0.02   0.03   0.03    -0.02   0.02   0.00    -0.00   0.00   0.00
  15   7    -0.06  -0.16  -0.20    -0.08  -0.07   0.01    -0.01  -0.01  -0.01
  16   6     0.14   0.24   0.02     0.37   0.24  -0.31     0.03   0.06  -0.04
  17   6    -0.18  -0.09   0.43     0.24   0.21  -0.21     0.01  -0.02   0.03
  18   6    -0.03  -0.04  -0.02    -0.01  -0.03   0.11    -0.00  -0.01   0.01
  19   6    -0.03  -0.08  -0.01    -0.11  -0.08   0.10    -0.01  -0.02   0.01
  20   6    -0.06  -0.07  -0.01    -0.13  -0.08   0.11    -0.01  -0.02   0.01
  21   6     0.04   0.03  -0.08    -0.02  -0.11   0.04    -0.00   0.00  -0.01
  22   6     0.08   0.02  -0.14    -0.08  -0.07   0.07    -0.00   0.01  -0.01
  23   6     0.04   0.02  -0.13    -0.08  -0.06   0.07    -0.00   0.01  -0.01
  24   6     0.02   0.06   0.07    -0.08   0.05  -0.01    -0.00   0.01   0.01
  25   1    -0.16  -0.11   0.04    -0.01  -0.01   0.03    -0.02  -0.02   0.01
  26   1     0.03   0.03  -0.02    -0.24  -0.19   0.07    -0.02  -0.01   0.00
  27   1     0.03  -0.01   0.03     0.11  -0.14   0.05     0.01  -0.02   0.01
  28   1    -0.02   0.08  -0.02     0.01   0.10  -0.11     0.00   0.01  -0.01
  29   1     0.06  -0.03   0.02     0.06   0.06  -0.04     0.01   0.00  -0.00
  30   1     0.04   0.03   0.02     0.08   0.03  -0.07     0.02   0.01   0.00
  31   1    -0.08   0.01  -0.04    -0.16  -0.07  -0.14    -0.03  -0.00  -0.02
  32   1     0.01   0.01  -0.01     0.09   0.08  -0.01     0.01   0.01   0.00
  33   1     0.02   0.00  -0.03    -0.14  -0.00   0.20    -0.01  -0.00   0.01
  34   1     0.15   0.01  -0.19     0.02  -0.04  -0.05     0.02   0.00  -0.02
  35   1     0.08  -0.13  -0.07    -0.04   0.12   0.08     0.01  -0.01  -0.00
  36   1    -0.05   0.01   0.07     0.07   0.04  -0.04    -0.01   0.01   0.01
  37   1    -0.04   0.00   0.06     0.03   0.00  -0.08     0.00  -0.01   0.01
  38   1     0.04  -0.07   0.10    -0.00   0.07  -0.05    -0.00   0.00  -0.00
  39   1    -0.08   0.08  -0.02     0.10  -0.08   0.07    -0.00   0.00  -0.00
  40   1    -0.08   0.03   0.00     0.04   0.03  -0.05    -0.00   0.00  -0.00
  41   1     0.02   0.04   0.04    -0.05   0.01   0.04    -0.01  -0.01  -0.01
  42   1    -0.03  -0.09  -0.10    -0.00  -0.02  -0.01    -0.00  -0.00  -0.00
  43   8     0.01  -0.01  -0.00    -0.01   0.02   0.01     0.02  -0.02  -0.01
  44   6    -0.01   0.02  -0.01     0.02  -0.03   0.01    -0.04   0.05  -0.02
  45   8    -0.00   0.00   0.01     0.00   0.00  -0.01     0.00  -0.00   0.02
  46   6     0.00  -0.00   0.00    -0.00   0.01  -0.00     0.01  -0.01   0.00
  47   1    -0.00   0.00  -0.00     0.00  -0.00   0.00    -0.00   0.00  -0.00
  48   1    -0.00   0.00  -0.00     0.00  -0.00  -0.00    -0.00   0.00   0.00
  49   1     0.00  -0.00   0.01    -0.00   0.00  -0.01     0.00  -0.01   0.02
  50   8    -0.01  -0.03  -0.02     0.00   0.00  -0.02     0.01   0.01  -0.01
  51   8    -0.00  -0.00   0.00     0.00  -0.00  -0.00    -0.00   0.00   0.00
  52   6     0.00  -0.00   0.00    -0.01   0.01  -0.00    -0.00   0.00  -0.00
  53   8    -0.00   0.00  -0.00     0.01  -0.01   0.00    -0.00   0.00  -0.00
  54   6    -0.00  -0.00  -0.00     0.00  -0.00   0.00     0.00  -0.00  -0.00
  55   1    -0.00   0.00   0.00     0.00  -0.00  -0.00    -0.00  -0.00   0.00
  56   1     0.00  -0.00  -0.00    -0.00   0.00  -0.00    -0.00   0.00   0.00
  57   1    -0.00   0.00   0.00    -0.00   0.00  -0.00    -0.00   0.00  -0.00
                    103                    104                    105
                        a                      a                      a 
 Frequencies --  1276.6077              1284.9330              1285.6371
 Red. masses --     6.5204                 5.6108                11.1325
 Frc consts  --     0.0000                 0.0000                 0.0000
 IR Inten    --    14.8858                 8.1356                 1.8030
 Raman Activ --     0.0000                 0.0000                 0.0000
 Depolar     --     0.0000                 0.0000                 0.0000
 Atom AN      X      Y      Z        X      Y      Z        X      Y      Z
   1  53    -0.00  -0.00  -0.00     0.00  -0.00   0.00     0.00   0.00   0.00
   2   6    -0.00  -0.01   0.01     0.00   0.01  -0.01    -0.09  -0.29   0.28
   3   6    -0.02  -0.01  -0.03     0.00  -0.00   0.01    -0.14  -0.03  -0.31
   4   6     0.03   0.03   0.01    -0.00  -0.00  -0.00     0.20   0.24   0.08
   5   6     0.02   0.02   0.01    -0.01  -0.01  -0.00     0.27   0.35   0.09
   6   1     0.01   0.00   0.04     0.00   0.00   0.01    -0.03  -0.01  -0.07
   7   6    -0.01  -0.00  -0.02     0.00  -0.00   0.01    -0.16  -0.02  -0.42
   8   1    -0.02  -0.02  -0.00    -0.00  -0.00  -0.00     0.06   0.07   0.02
   9   6    -0.01  -0.03   0.03     0.00   0.00  -0.01    -0.07  -0.23   0.23
  10   1     0.01   0.01   0.00     0.00   0.00   0.00    -0.09  -0.12  -0.04
  11   1    -0.01  -0.00  -0.02    -0.00  -0.00  -0.01     0.06   0.02   0.15
  12   1     0.00   0.01  -0.01     0.00   0.00  -0.00    -0.02  -0.07   0.07
  13   1    -0.16  -0.35  -0.37    -0.01  -0.05   0.07     0.01   0.03   0.04
  14   8    -0.00   0.00   0.01    -0.02   0.02  -0.00    -0.00   0.00  -0.00
  15   7     0.03   0.07   0.07     0.05  -0.06   0.03    -0.00  -0.01  -0.01
  16   6    -0.09   0.31  -0.25    -0.09   0.37  -0.13     0.00  -0.00   0.01
  17   6     0.14  -0.29   0.27    -0.15   0.15  -0.25    -0.01   0.02  -0.02
  18   6    -0.01  -0.15   0.08    -0.12  -0.10   0.04    -0.00   0.01  -0.00
  19   6     0.02  -0.09   0.06     0.03  -0.11   0.02    -0.00   0.00  -0.00
  20   6     0.04  -0.09   0.08     0.03  -0.10   0.03     0.00   0.00  -0.00
  21   6    -0.01   0.07  -0.15    -0.08   0.00   0.10    -0.00  -0.00   0.01
  22   6    -0.06   0.10  -0.07     0.05  -0.03   0.07     0.01  -0.01   0.00
  23   6    -0.04   0.07  -0.07     0.05  -0.03   0.07     0.00  -0.00   0.01
  24   6     0.02   0.10   0.09     0.21  -0.08   0.03     0.00  -0.01  -0.00
  25   1    -0.08  -0.05   0.08    -0.30  -0.22   0.06    -0.01  -0.01  -0.00
  26   1     0.00   0.04  -0.04     0.27   0.21  -0.04     0.00   0.00   0.00
  27   1     0.06  -0.07   0.03     0.04  -0.03   0.03    -0.00   0.00  -0.00
  28   1     0.02  -0.03  -0.01     0.00  -0.01   0.02    -0.00   0.00   0.00
  29   1     0.04  -0.01   0.01     0.04  -0.04   0.02     0.00  -0.00   0.00
  30   1     0.13   0.07   0.01     0.11   0.07   0.05    -0.00  -0.00   0.00
  31   1    -0.08   0.01  -0.04    -0.08   0.04  -0.01    -0.00   0.00  -0.00
  32   1    -0.03   0.07  -0.06    -0.03   0.04  -0.05     0.00  -0.00   0.00
  33   1    -0.04  -0.04   0.09     0.20  -0.02  -0.28     0.01   0.00  -0.01
  34   1     0.11   0.06  -0.11    -0.20   0.02   0.29    -0.01  -0.00   0.01
  35   1     0.07  -0.06  -0.01    -0.06   0.03  -0.01    -0.00   0.00  -0.00
  36   1    -0.08   0.05   0.10     0.04  -0.06  -0.08     0.01  -0.00  -0.01
  37   1     0.05  -0.09   0.05    -0.03   0.05  -0.02    -0.01   0.01  -0.00
  38   1    -0.02   0.01  -0.03    -0.00  -0.03   0.01     0.00  -0.00   0.00
  39   1    -0.06   0.05  -0.04     0.02  -0.03  -0.00     0.00  -0.00   0.00
  40   1    -0.04   0.03  -0.01     0.03  -0.04   0.03     0.00  -0.00   0.00
  41   1    -0.06  -0.15  -0.16     0.08  -0.02  -0.03     0.00   0.01   0.01
  42   1     0.01   0.02   0.02     0.02   0.00  -0.00     0.00  -0.00  -0.00
  43   8     0.00  -0.00   0.00     0.01  -0.01  -0.00     0.00  -0.00  -0.00
  44   6    -0.00   0.00   0.00    -0.01   0.02  -0.01    -0.01   0.01  -0.00
  45   8     0.00  -0.00   0.00     0.00   0.00   0.01    -0.00   0.00   0.00
  46   6     0.00  -0.00  -0.00     0.00  -0.00   0.00     0.00  -0.00  -0.00
  47   1    -0.00   0.00  -0.00    -0.00   0.00  -0.00     0.00   0.00   0.00
  48   1    -0.00   0.00  -0.00    -0.00   0.00   0.00    -0.00  -0.00   0.00
  49   1     0.00  -0.00   0.00     0.00  -0.00   0.01     0.00  -0.00   0.00
  50   8     0.01   0.02   0.02    -0.01   0.01  -0.01     0.00   0.00  -0.00
  51   8     0.00   0.00  -0.00    -0.00   0.00   0.00    -0.00   0.00   0.00
  52   6    -0.00  -0.00   0.00     0.01  -0.01   0.00     0.00  -0.00  -0.00
  53   8     0.00   0.00   0.00    -0.00   0.00  -0.00    -0.00   0.00   0.00
  54   6    -0.00   0.00   0.00    -0.00   0.00  -0.00    -0.00   0.00   0.00
  55   1     0.00  -0.00  -0.00    -0.00   0.00   0.00    -0.00   0.00   0.00
  56   1    -0.00   0.00   0.00     0.00  -0.00   0.00     0.00  -0.00  -0.00
  57   1     0.00  -0.00   0.00     0.00   0.00   0.00    -0.00  -0.00  -0.00
                    106                    107                    108
                        a                      a                      a 
 Frequencies --  1341.3176              1358.2469              1361.6373
 Red. masses --     4.6672                 4.8446                 5.0818
 Frc consts  --     0.0000                 0.0000                 0.0000
 IR Inten    --     0.1382                 3.6291                 3.2949
 Raman Activ --     0.0000                 0.0000                 0.0000
 Depolar     --     0.0000                 0.0000                 0.0000
 Atom AN      X      Y      Z        X      Y      Z        X      Y      Z
   1  53    -0.00  -0.00  -0.00    -0.00  -0.00  -0.00     0.00  -0.00  -0.00
   2   6     0.00   0.00  -0.00     0.00   0.00  -0.00     0.00   0.00   0.00
   3   6     0.00   0.00   0.00    -0.00   0.00   0.00    -0.00   0.00  -0.00
   4   6    -0.00  -0.00  -0.00    -0.00  -0.00  -0.00    -0.00  -0.00  -0.00
   5   6    -0.00  -0.00  -0.00    -0.00  -0.00   0.00    -0.00  -0.00   0.00
   6   1     0.00   0.00   0.00     0.00  -0.00   0.00     0.00  -0.00   0.00
   7   6     0.00  -0.00   0.00     0.00   0.00   0.00     0.00   0.00   0.00
   8   1    -0.00  -0.00  -0.00    -0.00  -0.00  -0.00    -0.00  -0.00  -0.00
   9   6     0.00   0.00  -0.00     0.00   0.00  -0.00     0.00  -0.00   0.00
  10   1     0.00   0.00   0.00     0.00   0.00   0.00     0.00   0.00   0.00
  11   1    -0.00  -0.00  -0.00    -0.00  -0.00  -0.00    -0.00   0.00  -0.00
  12   1     0.00   0.00  -0.00     0.00   0.00  -0.00     0.00   0.00  -0.00
  13   1     0.00   0.01   0.01    -0.01  -0.03  -0.10    -0.05  -0.11   0.07
  14   8    -0.00  -0.01  -0.01    -0.00  -0.01  -0.00     0.00   0.01  -0.01
  15   7     0.01   0.02   0.02    -0.00   0.02   0.04     0.04   0.02  -0.01
  16   6    -0.05  -0.09   0.03    -0.07   0.01  -0.04    -0.20  -0.06  -0.05
  17   6     0.03   0.02  -0.11     0.14  -0.11  -0.10    -0.06   0.03   0.08
  18   6     0.15   0.06  -0.12     0.08   0.13   0.02     0.35   0.30  -0.07
  19   6     0.00   0.04  -0.02     0.02   0.00   0.01     0.04   0.04  -0.01
  20   6     0.02   0.03   0.00     0.03  -0.00   0.02     0.07   0.01   0.03
  21   6    -0.17  -0.07   0.11    -0.19   0.02   0.39     0.14   0.01  -0.16
  22   6    -0.01   0.01   0.03    -0.04   0.06   0.03     0.01  -0.01  -0.02
  23   6     0.00  -0.02   0.04    -0.03   0.02   0.04     0.01   0.01  -0.03
  24   6     0.11   0.31   0.33    -0.03  -0.13  -0.23    -0.08  -0.16   0.04
  25   1    -0.08  -0.06   0.00    -0.19  -0.15  -0.00    -0.46  -0.34   0.07
  26   1    -0.26  -0.16  -0.02     0.00  -0.00   0.02    -0.26  -0.22   0.07
  27   1     0.01  -0.01  -0.01    -0.02  -0.01  -0.02    -0.00  -0.03  -0.03
  28   1    -0.00  -0.03   0.02     0.01  -0.02  -0.01     0.01  -0.08   0.03
  29   1    -0.01  -0.01   0.01     0.01  -0.01   0.01    -0.02  -0.04   0.04
  30   1    -0.02  -0.01  -0.00     0.00  -0.00   0.01    -0.01  -0.01   0.02
  31   1     0.01  -0.01  -0.01    -0.03   0.01  -0.01    -0.03   0.01  -0.03
  32   1    -0.01  -0.02   0.01    -0.01   0.01  -0.01    -0.01  -0.01   0.01
  33   1     0.19  -0.08  -0.25     0.14   0.03  -0.22    -0.12   0.00   0.19
  34   1     0.06  -0.01  -0.09     0.32  -0.05  -0.48    -0.13  -0.01   0.17
  35   1    -0.02  -0.00  -0.00     0.03  -0.04  -0.00     0.00   0.01   0.00
  36   1     0.01  -0.01  -0.02     0.01   0.01  -0.01    -0.01  -0.01   0.00
  37   1     0.00   0.01  -0.02     0.02  -0.01  -0.01     0.00  -0.01   0.01
  38   1    -0.00   0.03  -0.03    -0.03   0.02  -0.05     0.01  -0.03   0.03
  39   1    -0.01  -0.00  -0.01     0.01  -0.04  -0.04     0.02   0.00   0.01
  40   1     0.01   0.01  -0.01     0.02   0.03  -0.03    -0.02  -0.01   0.02
  41   1    -0.09  -0.26  -0.27     0.08   0.26   0.29     0.07   0.11   0.10
  42   1    -0.12  -0.36  -0.38     0.05  -0.01   0.00    -0.10   0.02  -0.00
  43   8    -0.00  -0.00  -0.00     0.00   0.00   0.00    -0.00  -0.00   0.00
  44   6    -0.00  -0.00  -0.00     0.00  -0.00   0.00    -0.00   0.00   0.00
  45   8     0.00   0.00   0.00     0.00  -0.00  -0.00     0.00  -0.00  -0.00
  46   6     0.00  -0.00   0.00    -0.00   0.00  -0.00     0.01  -0.01   0.01
  47   1    -0.00  -0.00  -0.00     0.00  -0.00   0.00    -0.02   0.01  -0.01
  48   1     0.00   0.00  -0.00    -0.00  -0.00   0.00    -0.00   0.01  -0.01
  49   1     0.00   0.00  -0.00     0.00  -0.00   0.00    -0.01   0.00  -0.02
  50   8     0.00  -0.00  -0.00     0.00   0.00   0.01    -0.00   0.01  -0.01
  51   8     0.00   0.00   0.00     0.00   0.00  -0.00    -0.00   0.00   0.00
  52   6    -0.00  -0.00  -0.00    -0.00  -0.00   0.00     0.00  -0.00   0.00
  53   8    -0.00  -0.00   0.00     0.00  -0.00   0.00    -0.00   0.00  -0.00
  54   6     0.00  -0.00  -0.00    -0.00   0.00   0.00    -0.00   0.00   0.00
  55   1     0.00   0.00   0.00     0.00  -0.00  -0.00     0.00  -0.00  -0.00
  56   1    -0.00   0.00   0.00     0.00  -0.00  -0.00     0.00  -0.00   0.00
  57   1     0.00   0.00   0.00     0.00  -0.00  -0.00     0.00  -0.00   0.00
                    109                    110                    111
                        a                      a                      a 
 Frequencies --  1365.6137              1367.1828              1387.1574
 Red. masses --     3.2725                 3.3227                 1.9561
 Frc consts  --     0.0000                 0.0000                 0.0000
 IR Inten    --    21.6057                23.2200                82.0509
 Raman Activ --     0.0000                 0.0000                 0.0000
 Depolar     --     0.0000                 0.0000                 0.0000
 Atom AN      X      Y      Z        X      Y      Z        X      Y      Z
   1  53     0.00  -0.00   0.00    -0.00   0.00  -0.00     0.01  -0.01   0.01
   2   6    -0.00  -0.00   0.00     0.00   0.00   0.00     0.01  -0.00   0.01
   3   6     0.00   0.00  -0.00     0.00   0.00  -0.00    -0.00   0.01  -0.01
   4   6     0.00   0.00  -0.00    -0.00  -0.00  -0.00    -0.01  -0.00  -0.01
   5   6    -0.00  -0.00  -0.00    -0.00  -0.00  -0.00    -0.01  -0.01  -0.01
   6   1     0.00  -0.00   0.00     0.00   0.00   0.00     0.00   0.00  -0.00
   7   6     0.00   0.00   0.00     0.00   0.00  -0.00     0.01   0.01   0.00
   8   1     0.00  -0.00  -0.00     0.00   0.00  -0.00     0.01   0.01  -0.00
   9   6    -0.00  -0.00   0.00     0.00  -0.00   0.00     0.00  -0.00   0.01
  10   1     0.00   0.00   0.00     0.00   0.00   0.00     0.01   0.01   0.00
  11   1    -0.00   0.00  -0.00     0.00   0.00   0.00     0.00   0.00  -0.00
  12   1     0.00   0.00  -0.00     0.00   0.00  -0.00     0.00   0.01  -0.01
  13   1     0.00   0.01  -0.01    -0.01  -0.02   0.02    -0.21  -0.62   0.67
  14   8     0.00  -0.00   0.00    -0.00   0.00  -0.00    -0.02   0.07  -0.05
  15   7    -0.00  -0.00   0.00     0.00   0.00  -0.00     0.07   0.07  -0.10
  16   6    -0.00   0.00  -0.00    -0.01  -0.00  -0.00     0.02  -0.03   0.08
  17   6     0.00   0.00  -0.00    -0.00   0.00   0.00     0.00  -0.08   0.03
  18   6     0.00   0.00   0.00     0.01   0.01  -0.00    -0.04  -0.02  -0.02
  19   6    -0.00   0.00  -0.00     0.00   0.00  -0.00    -0.00   0.00  -0.03
  20   6     0.00   0.00   0.00     0.00   0.00   0.00    -0.04   0.01  -0.04
  21   6    -0.00  -0.00   0.00     0.01   0.00  -0.01    -0.02   0.03   0.03
  22   6     0.00  -0.00  -0.00    -0.00   0.00   0.00    -0.02   0.05   0.01
  23   6    -0.00  -0.00  -0.00     0.00  -0.00   0.00     0.01   0.02   0.00
  24   6    -0.00  -0.00  -0.00    -0.00  -0.00   0.00     0.00   0.02  -0.02
  25   1    -0.00  -0.00   0.00    -0.02  -0.01   0.00     0.07   0.06   0.01
  26   1    -0.00  -0.00   0.00    -0.01  -0.01   0.00     0.05   0.01   0.01
  27   1     0.00  -0.00  -0.00     0.00  -0.00   0.00    -0.00   0.02   0.01
  28   1     0.00  -0.00   0.00    -0.00  -0.01   0.00    -0.01   0.01   0.01
  29   1     0.00  -0.00   0.00    -0.00  -0.00   0.00     0.00  -0.01   0.00
  30   1     0.00  -0.00  -0.00     0.00   0.00  -0.00     0.02   0.03   0.01
  31   1    -0.00   0.00  -0.00     0.00  -0.00   0.00     0.06  -0.02   0.03
  32   1    -0.00   0.00  -0.00    -0.00  -0.00   0.00     0.02  -0.03   0.02
  33   1    -0.00   0.00  -0.00    -0.01  -0.00   0.01     0.03  -0.03  -0.02
  34   1     0.00  -0.00  -0.00    -0.01   0.00   0.01     0.03  -0.02  -0.07
  35   1    -0.00   0.00  -0.00     0.00  -0.00  -0.00     0.05  -0.06  -0.00
  36   1    -0.00   0.00   0.00     0.00  -0.00  -0.00     0.01  -0.02  -0.04
  37   1    -0.00   0.00  -0.00     0.00  -0.00  -0.00     0.02  -0.03   0.02
  38   1    -0.00  -0.00  -0.00     0.00   0.00  -0.00    -0.01  -0.01  -0.01
  39   1     0.00  -0.00   0.00    -0.01   0.00  -0.00    -0.01   0.00  -0.02
  40   1    -0.00  -0.00   0.00    -0.00   0.00  -0.00     0.00  -0.01   0.01
  41   1     0.00   0.00   0.00     0.00   0.00   0.00    -0.00   0.00  -0.00
  42   1     0.00   0.00   0.00    -0.00   0.00  -0.00     0.02  -0.01   0.00
  43   8    -0.00   0.00   0.00     0.00  -0.00  -0.00    -0.01   0.01   0.01
  44   6     0.00  -0.00   0.00     0.02  -0.04   0.01     0.00  -0.00   0.01
  45   8    -0.00   0.00  -0.00    -0.00   0.01   0.02     0.00  -0.01  -0.01
  46   6    -0.00   0.01  -0.01    -0.17   0.21  -0.36     0.00  -0.00   0.01
  47   1     0.01  -0.01   0.01     0.35  -0.21   0.31    -0.01   0.01  -0.00
  48   1     0.00  -0.01   0.01     0.03  -0.37   0.37    -0.00   0.01  -0.01
  49   1     0.00  -0.00   0.01     0.15  -0.08   0.47    -0.00   0.00  -0.01
  50   8    -0.00  -0.00   0.00     0.00   0.00  -0.00    -0.01   0.08  -0.07
  51   8    -0.00  -0.00   0.03     0.00   0.00  -0.00    -0.00  -0.00   0.02
  52   6    -0.02   0.02  -0.01    -0.00   0.00   0.00     0.02  -0.01  -0.01
  53   8    -0.01   0.00  -0.01     0.00  -0.00   0.00    -0.01   0.01  -0.01
  54   6     0.37  -0.18  -0.20    -0.01   0.00   0.01     0.00  -0.00  -0.00
  55   1    -0.34   0.12   0.35     0.01  -0.00  -0.01    -0.01   0.00   0.01
  56   1    -0.51   0.07   0.09     0.01  -0.00  -0.00    -0.01   0.00  -0.00
  57   1    -0.31   0.37   0.19     0.01  -0.01  -0.00    -0.00   0.00   0.00
                    112                    113                    114
                        a                      a                      a 
 Frequencies --  1406.7988              1412.8933              1420.4599
 Red. masses --     3.2128                 3.1863                 8.1757
 Frc consts  --     0.0000                 0.0000                 0.0000
 IR Inten    --     0.3215                17.5817                 2.9556
 Raman Activ --     0.0000                 0.0000                 0.0000
 Depolar     --     0.0000                 0.0000                 0.0000
 Atom AN      X      Y      Z        X      Y      Z        X      Y      Z
   1  53    -0.00  -0.00  -0.00    -0.00   0.00  -0.00     0.00  -0.00   0.00
   2   6     0.00  -0.01   0.02    -0.00   0.02  -0.04     0.01   0.19  -0.31
   3   6     0.00   0.01  -0.02    -0.01  -0.03   0.03    -0.09  -0.21   0.13
   4   6    -0.01  -0.01  -0.01     0.03   0.03   0.02     0.16   0.13   0.20
   5   6    -0.01  -0.01  -0.00     0.03   0.03   0.02     0.18   0.15   0.21
   6   1     0.01   0.00   0.00    -0.01  -0.01  -0.00    -0.04  -0.07   0.01
   7   6     0.01   0.01  -0.01    -0.02  -0.03   0.01    -0.16  -0.24   0.01
   8   1     0.01   0.01   0.00    -0.02  -0.03  -0.00    -0.14  -0.19  -0.00
   9   6     0.00  -0.01   0.02    -0.00   0.02  -0.04     0.04   0.24  -0.34
  10   1     0.01   0.02   0.00    -0.03  -0.04  -0.01    -0.18  -0.25  -0.03
  11   1     0.00   0.00   0.00    -0.01  -0.01  -0.00    -0.01  -0.07   0.08
  12   1     0.01   0.01  -0.01    -0.01  -0.03   0.03    -0.10  -0.28   0.24
  13   1     0.00   0.00   0.03     0.02   0.05  -0.06    -0.01  -0.03   0.02
  14   8     0.00   0.00   0.00     0.00  -0.00   0.00    -0.00   0.00  -0.00
  15   7     0.00  -0.00  -0.01    -0.02   0.00   0.01     0.00   0.00  -0.00
  16   6    -0.05   0.01  -0.02     0.03  -0.01   0.01    -0.01   0.00  -0.00
  17   6     0.03  -0.03   0.00     0.04  -0.03  -0.01    -0.00  -0.00   0.00
  18   6     0.01  -0.01   0.01     0.00   0.00  -0.01     0.01   0.01  -0.00
  19   6     0.12  -0.21   0.11    -0.06   0.12  -0.06     0.03  -0.06   0.03
  20   6     0.18   0.06   0.09    -0.20  -0.07  -0.10    -0.00   0.00   0.00
  21   6    -0.01   0.01   0.00    -0.01   0.01   0.01     0.00   0.00  -0.00
  22   6    -0.06   0.08   0.06    -0.09   0.12   0.10     0.02  -0.02  -0.02
  23   6    -0.13   0.15  -0.15    -0.13   0.16  -0.16     0.01  -0.02   0.02
  24   6     0.00   0.01   0.01     0.03  -0.00   0.00    -0.01   0.00   0.00
  25   1     0.00  -0.01  -0.01    -0.00  -0.00  -0.01    -0.01  -0.01   0.00
  26   1    -0.01   0.01  -0.02    -0.01  -0.01  -0.00    -0.01  -0.00  -0.00
  27   1    -0.25   0.25  -0.04     0.14  -0.13   0.02    -0.07   0.08  -0.01
  28   1     0.00   0.26  -0.11    -0.00  -0.15   0.07    -0.00   0.07  -0.03
  29   1    -0.10   0.21  -0.20     0.05  -0.11   0.10    -0.02   0.06  -0.06
  30   1    -0.16  -0.15  -0.07     0.19   0.18   0.07     0.01   0.00  -0.01
  31   1    -0.17  -0.02  -0.19     0.20   0.03   0.23     0.02  -0.01   0.00
  32   1    -0.22  -0.04  -0.04     0.26   0.06   0.04    -0.01   0.00  -0.00
  33   1     0.01  -0.02   0.00     0.00  -0.01   0.00     0.00  -0.00   0.00
  34   1    -0.00  -0.01  -0.01     0.00  -0.00  -0.01    -0.00  -0.00  -0.00
  35   1     0.05  -0.12  -0.04     0.07  -0.19  -0.06    -0.01   0.03   0.01
  36   1     0.03  -0.07  -0.11     0.05  -0.10  -0.18    -0.01   0.01   0.03
  37   1     0.10  -0.06  -0.05     0.16  -0.09  -0.10    -0.02   0.01   0.02
  38   1     0.05  -0.14   0.23     0.03  -0.17   0.24    -0.00   0.02  -0.02
  39   1     0.26  -0.10   0.15     0.30  -0.11   0.18    -0.03   0.01  -0.02
  40   1     0.11  -0.25   0.14     0.07  -0.26   0.17    -0.00   0.02  -0.02
  41   1    -0.01  -0.03  -0.03    -0.04  -0.03   0.02     0.01   0.01  -0.01
  42   1    -0.00  -0.00  -0.00    -0.06   0.03  -0.02     0.01  -0.01   0.00
  43   8     0.00  -0.00  -0.00    -0.00   0.00   0.00    -0.00   0.00   0.00
  44   6    -0.00   0.00  -0.00     0.00  -0.00   0.00     0.01  -0.01   0.01
  45   8     0.00   0.00   0.00    -0.00  -0.00  -0.00    -0.00  -0.00  -0.00
  46   6    -0.00   0.00  -0.00     0.00   0.00  -0.00    -0.00   0.00  -0.00
  47   1     0.00   0.00   0.00     0.00  -0.01   0.00     0.00   0.01   0.00
  48   1     0.00  -0.01   0.00    -0.00   0.00   0.00    -0.00  -0.00   0.00
  49   1     0.01   0.00   0.00    -0.01  -0.00   0.00     0.01   0.00  -0.00
  50   8    -0.00   0.00  -0.00     0.00  -0.01   0.01    -0.00  -0.00  -0.00
  51   8     0.00   0.00  -0.00     0.00   0.00  -0.00     0.00   0.00   0.00
  52   6    -0.00  -0.00   0.00    -0.00   0.00   0.00    -0.00  -0.00   0.00
  53   8     0.00   0.00   0.00     0.00  -0.00   0.00    -0.00   0.00  -0.00
  54   6     0.00   0.00  -0.00     0.00   0.00  -0.00    -0.00  -0.00  -0.00
  55   1    -0.00  -0.00   0.00    -0.00  -0.00  -0.00     0.00   0.00   0.00
  56   1    -0.00  -0.00   0.00     0.00  -0.00   0.00    -0.00   0.00  -0.00
  57   1    -0.00   0.00  -0.00    -0.00   0.00  -0.00     0.00  -0.00   0.00
                    115                    116                    117
                        a                      a                      a 
 Frequencies --  1425.5251              1427.6987              1430.1243
 Red. masses --     7.7338                 3.2063                 3.0520
 Frc consts  --     0.0000                 0.0000                 0.0000
 IR Inten    --     6.5702                19.5336                 9.9888
 Raman Activ --     0.0000                 0.0000                 0.0000
 Depolar     --     0.0000                 0.0000                 0.0000
 Atom AN      X      Y      Z        X      Y      Z        X      Y      Z
   1  53    -0.00  -0.00  -0.00     0.00   0.00   0.00    -0.00   0.00   0.00
   2   6     0.18   0.23   0.05    -0.04  -0.03  -0.05    -0.03  -0.02  -0.04
   3   6    -0.15  -0.02  -0.35     0.02  -0.02   0.10     0.01  -0.02   0.07
   4   6    -0.16  -0.29   0.12     0.06   0.08  -0.01     0.04   0.06  -0.00
   5   6    -0.06  -0.19   0.19     0.03   0.06  -0.02     0.03   0.05  -0.01
   6   1     0.12   0.01   0.29    -0.03  -0.01  -0.07    -0.02  -0.01  -0.05
   7   6    -0.10  -0.00  -0.27     0.00  -0.03   0.07     0.00  -0.02   0.05
   8   1     0.14   0.12   0.09    -0.05  -0.05  -0.02    -0.04  -0.04  -0.02
   9   6     0.15   0.23  -0.02    -0.03  -0.02  -0.04    -0.02  -0.01  -0.03
  10   1     0.10   0.10   0.10    -0.04  -0.05  -0.03    -0.03  -0.04  -0.02
  11   1     0.13   0.03   0.31    -0.03  -0.01  -0.06    -0.02  -0.01  -0.04
  12   1    -0.01  -0.10   0.16    -0.01  -0.01  -0.01    -0.01  -0.01  -0.00
  13   1    -0.00   0.01   0.01     0.03   0.06   0.04    -0.01  -0.05   0.05
  14   8     0.00  -0.00   0.00     0.00   0.00   0.00    -0.00   0.00  -0.00
  15   7     0.00  -0.00  -0.00    -0.01  -0.02  -0.01     0.01   0.01  -0.01
  16   6     0.01   0.00   0.00     0.02   0.00   0.00     0.02  -0.00   0.00
  17   6    -0.00  -0.00   0.00    -0.01   0.00   0.01     0.01  -0.00  -0.00
  18   6    -0.01  -0.01  -0.00    -0.03  -0.02  -0.00    -0.04  -0.03   0.00
  19   6    -0.03   0.07  -0.03    -0.07   0.13  -0.06    -0.09   0.18  -0.08
  20   6     0.05   0.02   0.03     0.16   0.07   0.08     0.15   0.07   0.08
  21   6     0.00  -0.00  -0.00     0.02  -0.01  -0.03    -0.03   0.01   0.04
  22   6    -0.02   0.02   0.02    -0.14   0.17   0.17     0.11  -0.13  -0.13
  23   6    -0.00   0.00  -0.01     0.05  -0.06   0.07    -0.07   0.10  -0.11
  24   6     0.01   0.00  -0.00     0.00  -0.00  -0.00     0.03   0.01  -0.02
  25   1     0.02   0.02   0.01     0.03   0.04   0.02     0.05   0.05   0.01
  26   1     0.02   0.01   0.01     0.04   0.00   0.02     0.05   0.02   0.01
  27   1     0.08  -0.09   0.01     0.15  -0.17   0.01     0.20  -0.24   0.01
  28   1    -0.00  -0.08   0.04     0.00  -0.15   0.06     0.00  -0.22   0.08
  29   1     0.02  -0.07   0.07     0.05  -0.14   0.14     0.06  -0.19   0.19
  30   1    -0.05  -0.05  -0.03    -0.18  -0.15  -0.05    -0.16  -0.14  -0.05
  31   1    -0.06  -0.01  -0.06    -0.18  -0.03  -0.21    -0.17  -0.03  -0.20
  32   1    -0.08  -0.01  -0.02    -0.23  -0.06  -0.02    -0.22  -0.06  -0.02
  33   1    -0.00   0.00  -0.00    -0.03   0.03   0.02     0.03  -0.02  -0.03
  34   1     0.00   0.00   0.00    -0.01   0.02   0.05     0.02  -0.01  -0.05
  35   1     0.02  -0.04  -0.01     0.12  -0.35  -0.12    -0.09   0.26   0.09
  36   1     0.02  -0.01  -0.04     0.12  -0.13  -0.30    -0.10   0.10   0.23
  37   1     0.03  -0.01  -0.02     0.25  -0.12  -0.20    -0.19   0.09   0.15
  38   1    -0.00  -0.01   0.01    -0.02   0.05  -0.09     0.02  -0.12   0.15
  39   1     0.01  -0.00   0.01    -0.12   0.04  -0.08     0.21  -0.07   0.14
  40   1    -0.01  -0.00   0.01    -0.04   0.12  -0.08     0.02  -0.18   0.13
  41   1    -0.01  -0.01   0.00    -0.00  -0.01  -0.00    -0.04  -0.02   0.03
  42   1    -0.01   0.01  -0.00    -0.00   0.02   0.01    -0.03   0.03  -0.01
  43   8     0.00  -0.01  -0.00    -0.00  -0.00   0.00    -0.00   0.00   0.00
  44   6    -0.01   0.00  -0.01     0.00  -0.00  -0.01     0.01  -0.01   0.00
  45   8    -0.00   0.00   0.01     0.00   0.00   0.01     0.00   0.00   0.00
  46   6     0.01   0.00   0.00     0.00   0.00   0.00     0.01   0.01  -0.01
  47   1    -0.00  -0.01  -0.00    -0.00  -0.00  -0.00     0.00  -0.03  -0.00
  48   1     0.00   0.00  -0.01     0.00   0.00  -0.01    -0.01   0.01   0.00
  49   1    -0.01  -0.01   0.01    -0.00  -0.00   0.00    -0.03  -0.01   0.01
  50   8    -0.00  -0.00   0.00    -0.00  -0.00  -0.00     0.00   0.01  -0.01
  51   8    -0.00  -0.00  -0.00     0.00   0.00  -0.00     0.00   0.00  -0.00
  52   6     0.00  -0.00   0.00    -0.00   0.00   0.00    -0.00   0.00   0.00
  53   8    -0.00  -0.00  -0.00    -0.00   0.00   0.00     0.00  -0.00   0.00
  54   6    -0.00  -0.00  -0.00     0.00   0.00  -0.00    -0.00  -0.00   0.00
  55   1     0.00   0.00   0.00    -0.00  -0.00  -0.00     0.00   0.00  -0.00
  56   1    -0.00   0.00  -0.00    -0.00  -0.00   0.00     0.00   0.00  -0.00
  57   1     0.00   0.00   0.00    -0.00   0.00   0.00     0.00  -0.00  -0.00
                    118                    119                    120
                        a                      a                      a 
 Frequencies --  1447.3846              1452.3435              1456.9024
 Red. masses --     1.6008                 1.6303                 1.6524
 Frc consts  --     0.0000                 0.0000                 0.0000
 IR Inten    --     7.7236                 5.7992                18.3803
 Raman Activ --     0.0000                 0.0000                 0.0000
 Depolar     --     0.0000                 0.0000                 0.0000
 Atom AN      X      Y      Z        X      Y      Z        X      Y      Z
   1  53     0.00   0.00  -0.00     0.00  -0.00  -0.00    -0.00  -0.00   0.00
   2   6     0.00   0.00  -0.00    -0.00  -0.00  -0.00     0.00  -0.00   0.00
   3   6    -0.00  -0.00  -0.00     0.00  -0.00   0.00    -0.00   0.00  -0.00
   4   6     0.00   0.00   0.00     0.00   0.00  -0.00     0.00  -0.00   0.00
   5   6     0.00  -0.00   0.00     0.00   0.00  -0.00    -0.00  -0.00  -0.00
   6   1     0.00  -0.00   0.00    -0.00  -0.00  -0.00     0.00  -0.00  -0.00
   7   6    -0.00  -0.00  -0.00     0.00  -0.00   0.00    -0.00  -0.00  -0.00
   8   1    -0.00  -0.00   0.00    -0.00  -0.00  -0.00     0.00   0.00   0.00
   9   6     0.00   0.00  -0.00    -0.00  -0.00   0.00     0.00   0.00  -0.00
  10   1    -0.00  -0.00   0.00    -0.00  -0.00  -0.00     0.00   0.00  -0.00
  11   1     0.00  -0.00   0.00    -0.00  -0.00  -0.00    -0.00   0.00   0.00
  12   1    -0.00  -0.00   0.00    -0.00   0.00  -0.00     0.00   0.00  -0.00
  13   1    -0.00  -0.00   0.00    -0.00  -0.00   0.00     0.00  -0.00   0.00
  14   8     0.00   0.00  -0.00    -0.00   0.00  -0.00    -0.00   0.00  -0.00
  15   7     0.00   0.00   0.00    -0.00   0.00  -0.00     0.00   0.00  -0.00
  16   6    -0.00   0.00   0.00    -0.00  -0.00   0.00     0.00  -0.00   0.00
  17   6    -0.00  -0.00  -0.00    -0.00   0.00   0.00     0.00  -0.00  -0.00
  18   6     0.00  -0.00   0.00     0.00   0.00   0.00    -0.00  -0.00  -0.00
  19   6     0.00  -0.00   0.00     0.01  -0.01   0.01     0.00   0.00  -0.00
  20   6    -0.00  -0.00  -0.00    -0.00  -0.00  -0.00    -0.00  -0.00  -0.00
  21   6    -0.00   0.00   0.00     0.00  -0.00  -0.00    -0.00   0.00   0.00
  22   6     0.00  -0.00  -0.00    -0.00   0.00   0.00     0.00  -0.00  -0.00
  23   6    -0.00   0.00   0.00     0.00  -0.00   0.01     0.00   0.00  -0.00
  24   6    -0.00   0.00   0.00    -0.00  -0.00   0.00    -0.00   0.00  -0.00
  25   1     0.00   0.00  -0.00    -0.00  -0.00  -0.00     0.00   0.00   0.00
  26   1    -0.00   0.00  -0.00    -0.00   0.00  -0.00     0.00  -0.00   0.00
  27   1    -0.00   0.00  -0.00    -0.02   0.02  -0.01    -0.00  -0.00  -0.00
  28   1     0.00   0.00  -0.00     0.00   0.02  -0.01     0.00   0.00  -0.00
  29   1    -0.00   0.00  -0.00    -0.01   0.01  -0.01    -0.00  -0.00   0.00
  30   1     0.00   0.00  -0.00     0.00   0.01   0.00    -0.00   0.00   0.00
  31   1     0.00   0.00   0.00     0.01   0.00   0.01    -0.00   0.00   0.00
  32   1     0.00   0.00  -0.00     0.01  -0.00   0.00     0.00  -0.00   0.00
  33   1     0.00  -0.00   0.00    -0.00   0.00   0.00     0.00  -0.00   0.00
  34   1    -0.00  -0.00  -0.00    -0.00   0.00   0.00    -0.00  -0.00  -0.00
  35   1     0.00   0.00   0.00     0.00  -0.01  -0.00    -0.00   0.00  -0.00
  36   1     0.00   0.00   0.00     0.00  -0.00  -0.01    -0.00   0.00   0.00
  37   1    -0.00   0.00   0.00     0.01  -0.00  -0.00    -0.00   0.00  -0.00
  38   1    -0.00  -0.00   0.00    -0.01  -0.00  -0.00    -0.00  -0.00   0.00
  39   1    -0.00  -0.00  -0.00    -0.01  -0.01  -0.02     0.00  -0.00   0.00
  40   1     0.00   0.00  -0.00    -0.00   0.02  -0.01    -0.00  -0.00   0.00
  41   1     0.00  -0.00  -0.00     0.00   0.00  -0.00     0.00   0.00  -0.00
  42   1     0.00  -0.00  -0.00     0.00  -0.00   0.00     0.00  -0.00   0.00
  43   8    -0.00   0.00   0.00    -0.01   0.01   0.00    -0.00   0.00  -0.00
  44   6     0.00  -0.00   0.00     0.05  -0.00  -0.00    -0.00  -0.00  -0.00
  45   8    -0.00  -0.00  -0.00    -0.00   0.00   0.01    -0.00   0.00   0.00
  46   6     0.00   0.00  -0.00     0.18   0.14  -0.03    -0.00  -0.00   0.00
  47   1     0.00  -0.00   0.00     0.05  -0.54  -0.05    -0.00   0.00  -0.00
  48   1    -0.00   0.00   0.00    -0.16   0.32  -0.07     0.01  -0.01  -0.00
  49   1    -0.00  -0.00   0.00    -0.62  -0.29   0.20     0.01   0.00  -0.00
  50   8    -0.00  -0.00  -0.00    -0.00   0.00   0.00     0.00   0.00  -0.00
  51   8    -0.00  -0.00   0.00     0.00   0.00  -0.00     0.02   0.00  -0.05
  52   6     0.02   0.03   0.01    -0.00   0.00   0.00    -0.00  -0.01   0.04
  53   8    -0.00  -0.01  -0.00    -0.00   0.00   0.00    -0.01   0.01  -0.01
  54   6     0.13   0.18   0.06    -0.00   0.00  -0.00    -0.08   0.11  -0.18
  55   1    -0.39  -0.60  -0.16     0.00   0.00  -0.00     0.22  -0.09  -0.26
  56   1     0.26  -0.30   0.18    -0.00  -0.01   0.01    -0.16  -0.47   0.42
  57   1    -0.35   0.18  -0.25     0.00   0.00   0.01     0.20   0.15   0.58
                    121                    122                    123
                        a                      a                      a 
 Frequencies --  1464.2451              1470.5328              1478.9179
 Red. masses --     1.6692                 1.5912                 1.6490
 Frc consts  --     0.0000                 0.0000                 0.0000
 IR Inten    --    21.5745                 1.0489                11.8175
 Raman Activ --     0.0000                 0.0000                 0.0000
 Depolar     --     0.0000                 0.0000                 0.0000
 Atom AN      X      Y      Z        X      Y      Z        X      Y      Z
   1  53     0.00   0.00  -0.00    -0.00  -0.00  -0.00     0.00   0.00  -0.00
   2   6    -0.00  -0.00  -0.00     0.00   0.00  -0.00     0.00   0.00  -0.00
   3   6    -0.00  -0.00   0.00    -0.00  -0.00  -0.00    -0.00   0.00  -0.00
   4   6     0.00   0.00   0.00     0.00   0.00   0.00     0.00  -0.00   0.00
   5   6     0.00   0.00   0.00     0.00   0.00   0.00    -0.00  -0.00  -0.00
   6   1    -0.00  -0.00  -0.00     0.00  -0.00   0.00     0.00  -0.00   0.01
   7   6     0.00  -0.00   0.00    -0.00  -0.00   0.00    -0.00  -0.00  -0.01
   8   1    -0.00  -0.00  -0.00    -0.00  -0.00  -0.00     0.00   0.00   0.00
   9   6    -0.00  -0.00  -0.00     0.00   0.00  -0.01     0.00   0.00   0.00
  10   1    -0.00  -0.00  -0.00    -0.00  -0.00   0.00     0.00   0.00   0.00
  11   1    -0.00  -0.00  -0.00    -0.00  -0.00   0.00     0.00   0.00   0.00
  12   1    -0.00  -0.00  -0.00    -0.00  -0.00   0.00     0.00  -0.00   0.00
  13   1    -0.00  -0.01   0.00    -0.00  -0.02  -0.02    -0.01   0.00   0.02
  14   8    -0.00   0.00   0.00     0.00   0.00   0.00     0.00   0.00  -0.00
  15   7    -0.00   0.00  -0.00     0.00   0.00  -0.00    -0.01  -0.01  -0.00
  16   6     0.00   0.00   0.00    -0.00   0.01   0.03    -0.00   0.01   0.02
  17   6     0.00  -0.00  -0.00    -0.02   0.01   0.03     0.05   0.04   0.00
  18   6    -0.00   0.00  -0.00     0.00  -0.01   0.02     0.01  -0.00   0.08
  19   6     0.01   0.00   0.01    -0.01   0.06   0.12    -0.07   0.01   0.05
  20   6    -0.00  -0.00  -0.00     0.01  -0.02  -0.06     0.00   0.03  -0.04
  21   6    -0.00   0.00   0.00     0.01   0.03  -0.02     0.00   0.08   0.01
  22   6     0.00   0.00   0.00    -0.07  -0.08  -0.02     0.11   0.04   0.08
  23   6     0.00  -0.01  -0.01     0.03   0.10   0.07     0.09  -0.00  -0.02
  24   6    -0.01   0.00  -0.00    -0.00   0.01   0.01    -0.03   0.00  -0.00
  25   1     0.00   0.00   0.00     0.02  -0.01  -0.04     0.04  -0.08  -0.16
  26   1     0.00  -0.00   0.00    -0.01   0.03  -0.03    -0.08   0.10  -0.13
  27   1    -0.01  -0.01  -0.02    -0.26  -0.10  -0.25    -0.09   0.07  -0.02
  28   1     0.00   0.01  -0.01     0.16  -0.01  -0.37     0.10  -0.11  -0.21
  29   1    -0.01  -0.01   0.01     0.16  -0.13   0.15     0.26   0.02   0.02
  30   1    -0.00   0.00   0.01    -0.08   0.01   0.15    -0.01   0.04   0.11
  31   1     0.00   0.01   0.01    -0.07   0.09   0.01    -0.01  -0.05  -0.07
  32   1     0.01   0.00   0.00     0.08  -0.04   0.05     0.01  -0.12   0.09
  33   1     0.00  -0.00   0.00     0.02  -0.06   0.03     0.06  -0.18   0.09
  34   1    -0.00  -0.00  -0.00    -0.06  -0.04  -0.00    -0.11  -0.15  -0.09
  35   1    -0.01   0.00  -0.01     0.22  -0.07   0.11    -0.39  -0.00  -0.26
  36   1    -0.01  -0.01   0.01     0.24   0.23  -0.06    -0.26  -0.16   0.18
  37   1     0.00  -0.00  -0.00    -0.15   0.14   0.00     0.18  -0.04  -0.22
  38   1     0.01   0.02  -0.01    -0.17  -0.29   0.04    -0.15  -0.09  -0.15
  39   1    -0.00   0.02   0.03     0.13  -0.25  -0.23     0.06   0.04   0.12
  40   1    -0.01  -0.02   0.02    -0.07   0.17  -0.09    -0.27   0.03   0.13
  41   1     0.01   0.01  -0.00    -0.00  -0.03  -0.04     0.04   0.02  -0.03
  42   1     0.01  -0.01   0.00     0.01  -0.01   0.00     0.05  -0.03   0.02
  43   8    -0.01   0.01   0.00    -0.00   0.00   0.00     0.00  -0.00  -0.00
  44   6     0.01  -0.02  -0.04    -0.00   0.00   0.01    -0.00   0.00  -0.01
  45   8    -0.01   0.01   0.05     0.00  -0.00  -0.01    -0.00   0.00   0.00
  46   6    -0.10   0.17   0.12    -0.01   0.00   0.00     0.00  -0.00  -0.00
  47   1    -0.29  -0.38  -0.33    -0.01   0.00  -0.00     0.01   0.01   0.01
  48   1     0.44  -0.27  -0.46     0.01  -0.01  -0.01    -0.01   0.00   0.01
  49   1     0.22   0.01   0.29     0.02   0.01   0.00    -0.00  -0.00  -0.00
  50   8    -0.00   0.00   0.00     0.00   0.00   0.00    -0.00  -0.00  -0.00
  51   8     0.00  -0.00  -0.00     0.00   0.00  -0.00    -0.00   0.00   0.00
  52   6    -0.00  -0.00   0.00    -0.00   0.00   0.00     0.00  -0.00  -0.00
  53   8    -0.00   0.00   0.00     0.00  -0.00   0.00    -0.00   0.00  -0.00
  54   6     0.00  -0.00   0.00     0.00  -0.00   0.00    -0.00   0.00   0.00
  55   1    -0.00   0.00   0.00     0.00   0.00   0.00    -0.00  -0.00   0.00
  56   1     0.00   0.00  -0.00    -0.00   0.00  -0.00     0.00   0.00  -0.00
  57   1    -0.00  -0.00  -0.00     0.00  -0.00  -0.00    -0.00  -0.00  -0.00
                    124                    125                    126
                        a                      a                      a 
 Frequencies --  1479.8192              1486.4199              1489.6638
 Red. masses --     1.6895                 1.7303                 1.7830
 Frc consts  --     0.0000                 0.0000                 0.0000
 IR Inten    --     9.4827                 1.7444                 1.6390
 Raman Activ --     0.0000                 0.0000                 0.0000
 Depolar     --     0.0000                 0.0000                 0.0000
 Atom AN      X      Y      Z        X      Y      Z        X      Y      Z
   1  53    -0.00  -0.00   0.00     0.00  -0.00   0.00     0.00  -0.00   0.00
   2   6    -0.00  -0.00   0.00    -0.00  -0.00  -0.00    -0.00  -0.00   0.00
   3   6    -0.00   0.00  -0.00     0.00  -0.00   0.00     0.00   0.00  -0.00
   4   6    -0.00  -0.00  -0.00     0.00   0.00  -0.00    -0.00  -0.00  -0.00
   5   6     0.00   0.00  -0.00     0.00   0.00   0.00    -0.00  -0.00  -0.00
   6   1    -0.00   0.00  -0.00    -0.00  -0.00  -0.00    -0.01   0.00  -0.00
   7   6     0.00   0.00   0.00     0.00  -0.00   0.00     0.00   0.00  -0.00
   8   1     0.00   0.00  -0.00    -0.00  -0.00  -0.00     0.00   0.00   0.00
   9   6    -0.00  -0.00   0.00    -0.00   0.00  -0.00    -0.00  -0.00   0.00
  10   1     0.00   0.00  -0.00    -0.00  -0.00  -0.00     0.00   0.00  -0.00
  11   1     0.00   0.00  -0.00    -0.00  -0.00  -0.00     0.00   0.00   0.00
  12   1     0.00   0.00  -0.00    -0.00  -0.00   0.00     0.00   0.00  -0.00
  13   1     0.02  -0.00  -0.03     0.00  -0.00  -0.02     0.01   0.00  -0.02
  14   8    -0.00  -0.00   0.00    -0.00  -0.00   0.00    -0.00  -0.00  -0.00
  15   7     0.01   0.00   0.00    -0.00   0.00   0.00     0.00   0.01   0.01
  16   6    -0.02  -0.01  -0.01     0.02  -0.00  -0.01    -0.04  -0.01   0.00
  17   6    -0.03  -0.02   0.00    -0.00  -0.01  -0.00     0.02  -0.01  -0.00
  18   6     0.02   0.00   0.10    -0.03  -0.00  -0.08    -0.03   0.01  -0.19
  19   6    -0.08  -0.06  -0.08     0.07   0.02   0.00    -0.06  -0.03   0.01
  20   6    -0.02   0.07   0.03     0.02  -0.08   0.02    -0.03   0.04   0.05
  21   6     0.02   0.09  -0.00     0.01   0.14   0.02    -0.02  -0.10   0.00
  22   6    -0.09  -0.08   0.00    -0.02  -0.06   0.05     0.00  -0.04   0.04
  23   6     0.04  -0.00  -0.02     0.04  -0.04  -0.07     0.07   0.04  -0.02
  24   6     0.02  -0.01  -0.01    -0.09   0.02   0.01    -0.02   0.01   0.01
  25   1     0.04  -0.12  -0.21    -0.03   0.10   0.17    -0.10   0.19   0.39
  26   1    -0.12   0.13  -0.17     0.09  -0.10   0.14     0.21  -0.23   0.30
  27   1     0.19   0.22   0.29    -0.02  -0.13  -0.10    -0.00   0.15   0.09
  28   1    -0.05  -0.15   0.17    -0.04   0.12   0.06     0.05  -0.11  -0.07
  29   1     0.16   0.18  -0.15    -0.21  -0.08   0.05     0.22   0.09  -0.06
  30   1     0.10   0.05  -0.07    -0.08  -0.09  -0.06     0.14   0.04  -0.16
  31   1     0.10  -0.19  -0.09    -0.08   0.20   0.13     0.15  -0.17  -0.03
  32   1    -0.11  -0.11   0.04     0.06   0.21  -0.12    -0.12  -0.02  -0.02
  33   1     0.08  -0.17   0.06     0.13  -0.29   0.10    -0.09   0.20  -0.08
  34   1    -0.13  -0.15  -0.07    -0.20  -0.24  -0.14     0.14   0.17   0.08
  35   1     0.24  -0.11   0.10     0.00  -0.12  -0.07    -0.05  -0.06  -0.06
  36   1     0.28   0.27  -0.08     0.14   0.19   0.04     0.06   0.11   0.05
  37   1    -0.16   0.18  -0.03    -0.07   0.19  -0.18    -0.03   0.12  -0.14
  38   1    -0.05  -0.02  -0.07     0.01   0.09  -0.10    -0.16  -0.16  -0.10
  39   1     0.01   0.05   0.08    -0.02   0.17   0.22     0.10  -0.03   0.06
  40   1    -0.11  -0.02   0.08    -0.12  -0.10   0.15    -0.23   0.03   0.11
  41   1    -0.03  -0.01   0.04     0.16   0.09  -0.13     0.04   0.01  -0.04
  42   1    -0.04   0.04  -0.00     0.19  -0.12   0.05     0.04  -0.04   0.00
  43   8    -0.00   0.00   0.00     0.00  -0.00  -0.00    -0.00   0.00  -0.00
  44   6     0.00  -0.01  -0.00    -0.00   0.00  -0.00     0.00  -0.00   0.00
  45   8    -0.00   0.00   0.00     0.00  -0.00  -0.00    -0.00  -0.00  -0.00
  46   6    -0.00   0.01   0.00     0.01  -0.01  -0.00    -0.00   0.00   0.00
  47   1    -0.01  -0.01  -0.01     0.01   0.01   0.01    -0.00  -0.00  -0.00
  48   1     0.01  -0.00  -0.02    -0.02   0.01   0.02     0.00  -0.00  -0.01
  49   1     0.00  -0.00   0.01    -0.01  -0.00  -0.01     0.00  -0.00   0.00
  50   8    -0.00   0.00  -0.00     0.00   0.00   0.00    -0.00  -0.00  -0.00
  51   8     0.00  -0.00  -0.00     0.00   0.00  -0.00     0.00  -0.00   0.00
  52   6    -0.00   0.00   0.00    -0.00   0.00   0.00    -0.00   0.00  -0.00
  53   8     0.00  -0.00   0.00     0.00   0.00   0.00     0.00  -0.00  -0.00
  54   6     0.00  -0.00  -0.00     0.00  -0.00   0.00     0.00  -0.00   0.00
  55   1     0.00   0.00  -0.00     0.00   0.00   0.00    -0.00  -0.00  -0.00
  56   1    -0.00  -0.00   0.00     0.00   0.00  -0.00     0.00  -0.00   0.00
  57   1     0.00   0.00   0.00     0.00  -0.00  -0.00    -0.00   0.00  -0.00
                    127                    128                    129
                        a                      a                      a 
 Frequencies --  1494.1706              1498.2881              1501.3299
 Red. masses --     1.6624                 1.6396                 1.7013
 Frc consts  --     0.0000                 0.0000                 0.0000
 IR Inten    --     7.0581                 6.5612                 4.3673
 Raman Activ --     0.0000                 0.0000                 0.0000
 Depolar     --     0.0000                 0.0000                 0.0000
 Atom AN      X      Y      Z        X      Y      Z        X      Y      Z
   1  53     0.00   0.00   0.00     0.00  -0.00  -0.00     0.00  -0.00   0.00
   2   6    -0.00  -0.00   0.00     0.00   0.00  -0.00    -0.00  -0.00   0.00
   3   6     0.00   0.00   0.00    -0.00  -0.00   0.00    -0.00   0.00  -0.00
   4   6    -0.00  -0.00  -0.00     0.01   0.01   0.00    -0.00   0.00  -0.00
   5   6    -0.00  -0.00  -0.00     0.00   0.00   0.00    -0.00  -0.00   0.00
   6   1    -0.01   0.00  -0.01     0.01  -0.00   0.00    -0.00   0.00  -0.00
   7   6     0.00   0.00  -0.00    -0.00  -0.00   0.00     0.00  -0.00   0.00
   8   1     0.00   0.00   0.00    -0.00  -0.00  -0.00     0.00   0.00  -0.00
   9   6    -0.00  -0.00   0.01     0.00   0.01  -0.01     0.00   0.00  -0.00
  10   1     0.00   0.00  -0.00    -0.00  -0.00   0.00     0.00   0.00   0.00
  11   1     0.00   0.00   0.00    -0.00  -0.00  -0.00     0.00  -0.00   0.00
  12   1     0.00   0.00  -0.00    -0.00  -0.00   0.00    -0.00  -0.00   0.00
  13   1     0.02   0.03   0.01    -0.02  -0.04   0.02    -0.02  -0.06   0.03
  14   8     0.00   0.00   0.00    -0.00   0.00  -0.00    -0.00   0.01  -0.00
  15   7    -0.00  -0.01  -0.01    -0.00   0.01   0.00     0.01   0.01  -0.01
  16   6    -0.01   0.01   0.03     0.01  -0.05  -0.03     0.01   0.02   0.02
  17   6     0.00   0.02   0.05     0.01  -0.01   0.04     0.00  -0.05   0.03
  18   6    -0.01  -0.00  -0.03    -0.00   0.00  -0.02     0.03   0.00   0.11
  19   6     0.05   0.01  -0.02    -0.05  -0.05  -0.06     0.08   0.03   0.01
  20   6    -0.05   0.03   0.11     0.07  -0.10  -0.05    -0.02   0.01   0.02
  21   6     0.02   0.11  -0.00     0.00  -0.00  -0.00    -0.01  -0.13  -0.02
  22   6     0.05  -0.01   0.03     0.04  -0.04   0.05     0.03  -0.09   0.10
  23   6    -0.06   0.07   0.09    -0.01   0.04   0.04    -0.01  -0.00  -0.03
  24   6     0.04  -0.00  -0.01     0.12  -0.01  -0.03     0.01  -0.01   0.01
  25   1    -0.01   0.03   0.05     0.01   0.04   0.04     0.04  -0.13  -0.23
  26   1     0.04  -0.02   0.03     0.01  -0.04   0.04    -0.13   0.14  -0.18
  27   1     0.02  -0.05  -0.02     0.15   0.17   0.22    -0.06  -0.15  -0.14
  28   1    -0.05   0.07   0.09    -0.05  -0.07   0.15    -0.03   0.14   0.01
  29   1    -0.14  -0.04   0.02     0.07   0.15  -0.13    -0.21  -0.11   0.07
  30   1     0.21   0.01  -0.35    -0.24  -0.13   0.14     0.07   0.01  -0.09
  31   1     0.22  -0.21   0.01    -0.25   0.38   0.13     0.07  -0.08  -0.01
  32   1    -0.20   0.09  -0.12     0.19   0.19  -0.07    -0.06   0.00  -0.02
  33   1     0.09  -0.23   0.10    -0.01   0.02  -0.00    -0.12   0.27  -0.10
  34   1    -0.15  -0.19  -0.11     0.03   0.02  -0.00     0.19   0.24   0.12
  35   1    -0.17  -0.02  -0.13    -0.15  -0.07  -0.14    -0.16  -0.17  -0.20
  36   1    -0.09  -0.01   0.10    -0.00   0.10   0.12     0.10   0.26   0.16
  37   1     0.06   0.03  -0.13     0.00   0.13  -0.20    -0.06   0.30  -0.35
  38   1    -0.01  -0.16   0.15    -0.05  -0.11   0.03     0.03   0.05  -0.00
  39   1     0.04  -0.25  -0.32     0.03  -0.12  -0.14    -0.02   0.06   0.06
  40   1     0.19   0.15  -0.23     0.03   0.08  -0.08     0.02  -0.06   0.04
  41   1    -0.06  -0.03   0.05    -0.21  -0.11   0.17    -0.02  -0.01   0.02
  42   1    -0.07   0.05  -0.02    -0.24   0.15  -0.07    -0.03   0.02  -0.00
  43   8    -0.00   0.00  -0.00     0.00  -0.00   0.00    -0.00   0.00  -0.00
  44   6     0.00  -0.00   0.01    -0.00   0.00  -0.02    -0.00   0.00   0.01
  45   8    -0.00  -0.00  -0.01    -0.00   0.00   0.02     0.00  -0.00  -0.01
  46   6    -0.01   0.00   0.00    -0.00   0.00   0.00     0.00  -0.00  -0.00
  47   1    -0.01  -0.01  -0.01    -0.01  -0.01  -0.01     0.00   0.00   0.00
  48   1     0.01  -0.01  -0.01     0.01  -0.01  -0.01    -0.00   0.00   0.00
  49   1     0.01   0.00   0.01     0.01   0.00   0.01    -0.00  -0.00  -0.00
  50   8    -0.00  -0.00  -0.00    -0.00   0.00  -0.00    -0.00   0.01  -0.01
  51   8    -0.00  -0.00   0.00    -0.00   0.00   0.00    -0.00  -0.00   0.00
  52   6     0.00   0.00  -0.00     0.00  -0.00  -0.00     0.00   0.00  -0.00
  53   8    -0.00  -0.00  -0.00    -0.00   0.00  -0.00    -0.00   0.00  -0.00
  54   6    -0.00  -0.00  -0.00    -0.00   0.00   0.00    -0.00   0.00  -0.00
  55   1     0.00   0.00  -0.00    -0.00  -0.00   0.00     0.00  -0.00  -0.00
  56   1    -0.00   0.00  -0.00     0.00   0.00  -0.00    -0.00  -0.00   0.00
  57   1     0.00  -0.00   0.00    -0.00   0.00  -0.00     0.00   0.00   0.00
                    130                    131                    132
                        a                      a                      a 
 Frequencies --  1503.8194              1512.9105              1525.6229
 Red. masses --     1.6329                 1.8159                 1.6703
 Frc consts  --     0.0000                 0.0000                 0.0000
 IR Inten    --     3.0766                 0.5585                 6.6848
 Raman Activ --     0.0000                 0.0000                 0.0000
 Depolar     --     0.0000                 0.0000                 0.0000
 Atom AN      X      Y      Z        X      Y      Z        X      Y      Z
   1  53     0.00  -0.00   0.00     0.00  -0.00   0.00    -0.00   0.00  -0.00
   2   6    -0.00  -0.00   0.00    -0.00  -0.00   0.00     0.00   0.00  -0.00
   3   6     0.00  -0.00   0.00     0.00   0.00   0.00     0.00   0.00   0.00
   4   6    -0.00   0.00  -0.00    -0.00  -0.00  -0.00    -0.00  -0.00   0.00
   5   6     0.00   0.01  -0.00    -0.00  -0.00  -0.00     0.00   0.00  -0.00
   6   1    -0.01   0.00  -0.01    -0.00   0.00  -0.00     0.00  -0.00   0.00
   7   6     0.00   0.00   0.01     0.00   0.00  -0.00    -0.00   0.00  -0.00
   8   1     0.00   0.00  -0.00     0.00   0.00   0.00    -0.00  -0.00   0.00
   9   6    -0.00  -0.00  -0.00    -0.00  -0.00   0.00    -0.00  -0.00   0.00
  10   1     0.00  -0.00  -0.00     0.00   0.00  -0.00    -0.00   0.00   0.00
  11   1    -0.00  -0.00  -0.00     0.00   0.00   0.00     0.00   0.00   0.00
  12   1    -0.00   0.00  -0.00     0.00   0.00  -0.00     0.00   0.00  -0.00
  13   1     0.01   0.01   0.06     0.01   0.01   0.00     0.00   0.02  -0.02
  14   8    -0.00   0.00  -0.00     0.00  -0.00   0.00    -0.00  -0.00   0.00
  15   7     0.00  -0.00  -0.01     0.00   0.00  -0.00    -0.00  -0.01   0.01
  16   6    -0.01  -0.05   0.06    -0.02   0.01   0.04     0.03   0.02  -0.03
  17   6     0.01   0.02  -0.03    -0.01  -0.02  -0.02     0.03   0.03  -0.02
  18   6     0.02   0.01   0.07    -0.00  -0.00  -0.05    -0.01  -0.01   0.00
  19   6    -0.03   0.02   0.00    -0.01   0.02   0.08     0.14  -0.02  -0.03
  20   6     0.01  -0.11   0.13    -0.01  -0.00   0.03    -0.01   0.03  -0.03
  21   6    -0.01  -0.05  -0.00     0.01   0.05   0.01    -0.00  -0.00   0.01
  22   6    -0.02   0.04  -0.04    -0.01   0.00   0.00    -0.02   0.03  -0.03
  23   6     0.08   0.01  -0.00     0.01  -0.08  -0.04     0.15   0.04   0.01
  24   6    -0.02  -0.00   0.01     0.21  -0.02  -0.05     0.09  -0.01  -0.02
  25   1     0.04  -0.10  -0.19    -0.02   0.04   0.08     0.00   0.01   0.01
  26   1    -0.11   0.10  -0.14     0.06  -0.04   0.06     0.01  -0.00   0.01
  27   1    -0.02   0.03   0.00    -0.18  -0.03  -0.16     0.04  -0.13  -0.05
  28   1     0.03  -0.05  -0.06     0.11   0.01  -0.27    -0.15   0.27   0.25
  29   1     0.11  -0.00   0.02     0.12  -0.06   0.07    -0.41  -0.05  -0.01
  30   1     0.02  -0.17  -0.43     0.06  -0.00  -0.11     0.01   0.05   0.09
  31   1     0.04   0.18   0.23     0.07  -0.05   0.02    -0.00  -0.06  -0.06
  32   1    -0.10   0.45  -0.33    -0.06   0.05  -0.05     0.02  -0.11   0.08
  33   1    -0.04   0.09  -0.03     0.05  -0.08   0.02     0.00  -0.01   0.00
  34   1     0.06   0.07   0.05    -0.06  -0.08  -0.04    -0.00  -0.01  -0.01
  35   1     0.07   0.07   0.09     0.05  -0.01   0.02     0.05   0.05   0.06
  36   1    -0.03  -0.10  -0.07     0.03   0.01  -0.03    -0.03  -0.07  -0.05
  37   1     0.02  -0.12   0.15    -0.02   0.01   0.02     0.02  -0.09   0.10
  38   1    -0.14  -0.12  -0.11     0.10   0.24  -0.09    -0.31  -0.26  -0.23
  39   1     0.07  -0.01   0.05    -0.11   0.22   0.18     0.12  -0.06   0.05
  40   1    -0.21   0.05   0.09     0.00  -0.11   0.08    -0.39   0.11   0.14
  41   1     0.03   0.01  -0.02    -0.37  -0.18   0.30    -0.16  -0.08   0.13
  42   1     0.03  -0.03   0.01    -0.40   0.26  -0.11    -0.17   0.10  -0.05
  43   8    -0.00   0.00  -0.00    -0.00   0.00  -0.00     0.00   0.00  -0.00
  44   6    -0.00   0.00   0.00    -0.00   0.00   0.01    -0.00  -0.00   0.00
  45   8     0.00  -0.00  -0.00     0.00  -0.00  -0.01     0.00   0.00  -0.00
  46   6    -0.00   0.00   0.00     0.00  -0.00  -0.00    -0.00   0.00  -0.00
  47   1    -0.00  -0.00  -0.00     0.00   0.00   0.00     0.00   0.00   0.00
  48   1     0.00  -0.00  -0.00    -0.01   0.01   0.01     0.00  -0.00   0.00
  49   1     0.00  -0.00   0.00    -0.01  -0.00  -0.00     0.00   0.00  -0.00
  50   8    -0.00   0.00  -0.01    -0.00   0.00  -0.00     0.00  -0.00   0.00
  51   8    -0.00  -0.00   0.00    -0.00  -0.00   0.00     0.00   0.00  -0.00
  52   6     0.00   0.00  -0.00    -0.00   0.00  -0.00    -0.00  -0.00   0.00
  53   8    -0.00   0.00  -0.00    -0.00   0.00  -0.00     0.00  -0.00   0.00
  54   6    -0.00   0.00  -0.00     0.00   0.00  -0.00     0.00  -0.00   0.00
  55   1     0.00  -0.00  -0.00     0.00  -0.00  -0.00     0.00   0.00   0.00
  56   1    -0.00  -0.00   0.00    -0.00  -0.00   0.00     0.00   0.00  -0.00
  57   1     0.00   0.00   0.00     0.00   0.00   0.00    -0.00  -0.00  -0.00
                    133                    134                    135
                        a                      a                      a 
 Frequencies --  1539.4448              1577.6976              1667.9777
 Red. masses --    11.2568                11.5714                13.2154
 Frc consts  --     0.0000                 0.0000                 0.0000
 IR Inten    --     2.4885                 0.8533               431.9338
 Raman Activ --     0.0000                 0.0000                 0.0000
 Depolar     --     0.0000                 0.0000                 0.0000
 Atom AN      X      Y      Z        X      Y      Z        X      Y      Z
   1  53     0.00   0.00   0.00    -0.00  -0.00   0.00    -0.00  -0.00   0.01
   2   6     0.08   0.06   0.10     0.12   0.39  -0.37     0.01   0.01  -0.00
   3   6    -0.21  -0.13  -0.33     0.02  -0.15   0.30    -0.01  -0.01  -0.00
   4   6    -0.25  -0.25  -0.21    -0.16  -0.29   0.12    -0.01  -0.01  -0.00
   5   6     0.30   0.34   0.21     0.13   0.25  -0.10     0.01   0.01   0.00
   6   1     0.01  -0.03   0.09    -0.05  -0.04  -0.04     0.00  -0.00   0.01
   7   6     0.24   0.12   0.44    -0.01   0.13  -0.27     0.00   0.00   0.00
   8   1     0.05   0.07  -0.02     0.04   0.02   0.06    -0.00   0.01   0.00
   9   6    -0.14  -0.12  -0.17    -0.11  -0.34   0.33    -0.00  -0.00   0.00
  10   1    -0.09  -0.12  -0.01    -0.04  -0.04  -0.06    -0.00  -0.00  -0.00
  11   1    -0.05   0.01  -0.15     0.05   0.04   0.05    -0.00   0.00  -0.00
  12   1    -0.04  -0.03  -0.05     0.03   0.08  -0.08    -0.00   0.00  -0.00
  13   1    -0.00   0.00  -0.00     0.00  -0.01   0.00    -0.03   0.03  -0.00
  14   8     0.00   0.00   0.00    -0.00   0.00  -0.00     0.00  -0.01  -0.00
  15   7     0.00  -0.00   0.00     0.00   0.00  -0.00     0.00  -0.00   0.00
  16   6    -0.00   0.00   0.00     0.00  -0.00   0.00     0.00   0.00  -0.00
  17   6     0.00   0.00   0.00     0.00  -0.00   0.00     0.00   0.00   0.00
  18   6    -0.00  -0.00  -0.00    -0.00   0.00   0.00    -0.00  -0.00  -0.00
  19   6     0.00  -0.00   0.00    -0.00   0.00  -0.00    -0.00  -0.00  -0.01
  20   6    -0.00   0.00  -0.00     0.00  -0.00   0.00     0.01  -0.00  -0.00
  21   6     0.00   0.00   0.00    -0.00  -0.00   0.00    -0.00  -0.00  -0.00
  22   6     0.00   0.00   0.00    -0.00  -0.00   0.00     0.00   0.00   0.00
  23   6     0.00  -0.00   0.00    -0.00   0.00   0.00    -0.00  -0.00  -0.00
  24   6     0.00   0.00  -0.00    -0.00   0.00  -0.00    -0.00   0.00   0.00
  25   1    -0.00   0.00   0.00     0.00  -0.00  -0.00    -0.00   0.00   0.00
  26   1     0.00  -0.00   0.00    -0.00   0.00  -0.00     0.00   0.00  -0.00
  27   1    -0.00   0.00  -0.00    -0.00   0.00  -0.00     0.02   0.00   0.02
  28   1     0.00   0.00  -0.00     0.00  -0.00  -0.00    -0.00  -0.01   0.01
  29   1    -0.00   0.00  -0.00     0.00  -0.00   0.00     0.01   0.01  -0.00
  30   1     0.00   0.00   0.00    -0.01  -0.00   0.00    -0.01  -0.00   0.01
  31   1     0.00  -0.00  -0.00    -0.00   0.01   0.00    -0.02   0.01  -0.01
  32   1     0.00  -0.00   0.00     0.00   0.00  -0.00     0.00   0.00  -0.00
  33   1     0.00  -0.00   0.00    -0.00   0.00  -0.00     0.00  -0.00   0.00
  34   1    -0.00  -0.00  -0.00     0.00   0.00  -0.00    -0.00  -0.00   0.00
  35   1    -0.01  -0.00  -0.00     0.00  -0.00  -0.00    -0.00  -0.00  -0.00
  36   1    -0.00  -0.00   0.00     0.00   0.00   0.00    -0.00  -0.01  -0.00
  37   1     0.00  -0.00  -0.00    -0.00   0.00  -0.00     0.00  -0.00  -0.00
  38   1     0.00   0.00  -0.00     0.00   0.00   0.00     0.00   0.00   0.00
  39   1    -0.00   0.00  -0.00    -0.00   0.00  -0.00    -0.00   0.00   0.00
  40   1     0.00   0.00  -0.00     0.00  -0.00  -0.00    -0.00  -0.00   0.00
  41   1    -0.00  -0.00   0.00    -0.00  -0.00  -0.00     0.00   0.00  -0.00
  42   1    -0.00   0.00  -0.00    -0.00  -0.00  -0.00     0.00  -0.00  -0.00
  43   8     0.00  -0.00   0.00     0.00   0.00   0.00     0.04  -0.06  -0.05
  44   6     0.00  -0.00  -0.02    -0.00  -0.00  -0.01    -0.12   0.28   0.74
  45   8    -0.00   0.00   0.01    -0.00   0.00   0.01     0.08  -0.18  -0.54
  46   6     0.00  -0.00   0.00     0.00  -0.00   0.00    -0.01   0.01  -0.06
  47   1     0.00   0.00   0.00     0.00   0.00   0.00    -0.04  -0.00  -0.04
  48   1    -0.00   0.00   0.00    -0.00  -0.00   0.00     0.01   0.01  -0.04
  49   1     0.00   0.00  -0.00     0.00   0.00  -0.00     0.01  -0.01   0.07
  50   8     0.00   0.00   0.00    -0.00  -0.00  -0.00     0.01  -0.00  -0.01
  51   8    -0.00  -0.00   0.01    -0.00  -0.00   0.00    -0.01  -0.00   0.03
  52   6     0.00  -0.00  -0.01     0.00   0.00  -0.00     0.02   0.00  -0.04
  53   8    -0.00   0.00  -0.00     0.00   0.00  -0.00    -0.00  -0.00   0.00
  54   6    -0.00   0.00  -0.00    -0.00   0.00  -0.00    -0.00   0.00   0.00
  55   1    -0.00  -0.00  -0.00     0.00  -0.00  -0.00     0.00  -0.00  -0.00
  56   1    -0.00  -0.00   0.00    -0.00  -0.00   0.00    -0.00  -0.00   0.00
  57   1    -0.00   0.00   0.00    -0.00   0.00   0.00     0.00   0.00   0.00
                    136                    137                    138
                        a                      a                      a 
 Frequencies --  1709.5934              2915.1848              2918.6422
 Red. masses --    13.3419                 1.8205                 1.8196
 Frc consts  --     0.0000                 0.0000                 0.0000
 IR Inten    --   367.2168                11.8605                17.2835
 Raman Activ --     0.0000                 0.0000                 0.0000
 Depolar     --     0.0000                 0.0000                 0.0000
 Atom AN      X      Y      Z        X      Y      Z        X      Y      Z
   1  53    -0.01   0.00   0.01     0.00   0.00  -0.00     0.00   0.00  -0.00
   2   6     0.01   0.00   0.00    -0.00   0.00   0.00    -0.00  -0.00   0.00
   3   6    -0.01  -0.00  -0.00    -0.00  -0.00   0.00    -0.00   0.00  -0.00
   4   6    -0.00  -0.00  -0.00    -0.00  -0.00  -0.00    -0.00  -0.00  -0.00
   5   6     0.00   0.01   0.00     0.00  -0.00   0.00     0.00  -0.00   0.00
   6   1     0.01  -0.01  -0.00     0.00   0.00   0.00     0.00  -0.00   0.00
   7   6     0.00   0.00   0.00    -0.00  -0.00   0.00    -0.00  -0.00   0.00
   8   1     0.00   0.00   0.00    -0.00   0.00  -0.00    -0.00   0.00  -0.00
   9   6    -0.00  -0.00   0.00    -0.00  -0.00  -0.00    -0.00  -0.00  -0.00
  10   1    -0.00  -0.00  -0.00    -0.00   0.00  -0.00    -0.00   0.00  -0.00
  11   1    -0.00   0.00  -0.00     0.00   0.00  -0.00     0.00   0.00  -0.00
  12   1     0.00   0.00  -0.00     0.00   0.00   0.00     0.00   0.00   0.00
  13   1     0.01  -0.02   0.02    -0.00   0.00  -0.00     0.00   0.00  -0.00
  14   8     0.00  -0.00  -0.00     0.00  -0.00   0.00     0.00  -0.00   0.00
  15   7    -0.00   0.00  -0.00     0.00  -0.00   0.00     0.00  -0.00   0.00
  16   6     0.00   0.00   0.00    -0.00   0.01  -0.00    -0.00   0.00  -0.00
  17   6    -0.00  -0.00  -0.00     0.00  -0.00   0.00    -0.01   0.00  -0.01
  18   6    -0.00  -0.00  -0.00    -0.16   0.19  -0.07    -0.02   0.02  -0.01
  19   6    -0.00  -0.00  -0.00     0.00  -0.00  -0.00    -0.00  -0.00  -0.00
  20   6    -0.00  -0.00  -0.00     0.00  -0.01   0.01     0.00  -0.00   0.00
  21   6     0.00  -0.00   0.00     0.04  -0.02   0.03    -0.18   0.13  -0.13
  22   6     0.00   0.00   0.00     0.00   0.00  -0.00     0.00  -0.01   0.01
  23   6     0.00   0.00   0.00    -0.00  -0.00   0.00     0.00   0.00   0.00
  24   6     0.00   0.00  -0.00     0.01  -0.03   0.03     0.02  -0.05   0.04
  25   1     0.00   0.00  -0.00     0.53  -0.61   0.42     0.07  -0.08   0.06
  26   1     0.00   0.00  -0.00     0.05  -0.10  -0.15     0.00  -0.00  -0.01
  27   1    -0.00   0.00   0.00    -0.00   0.00  -0.00     0.00   0.00  -0.00
  28   1    -0.00   0.00   0.00    -0.00  -0.00  -0.00     0.00   0.00   0.00
  29   1     0.00   0.00   0.00    -0.00   0.01   0.01    -0.00   0.00   0.00
  30   1     0.00  -0.00  -0.00    -0.01   0.02  -0.01    -0.00   0.01  -0.00
  31   1     0.00   0.00   0.00     0.01   0.01  -0.01     0.00   0.00  -0.00
  32   1    -0.00   0.00  -0.00     0.00  -0.00  -0.00     0.00  -0.00   0.00
  33   1     0.00   0.00  -0.00    -0.04  -0.03  -0.02     0.14   0.13   0.09
  34   1     0.00   0.00  -0.00    -0.09   0.11  -0.07     0.52  -0.61   0.39
  35   1    -0.00  -0.00  -0.00    -0.00  -0.00   0.00     0.01   0.01  -0.01
  36   1    -0.00  -0.00   0.00     0.00  -0.00   0.00    -0.01   0.01  -0.01
  37   1     0.00   0.00  -0.00    -0.00  -0.00  -0.00     0.00   0.00   0.00
  38   1     0.00   0.00  -0.00     0.00  -0.00  -0.00     0.00  -0.00   0.00
  39   1    -0.00   0.00  -0.00     0.00   0.00  -0.00    -0.00   0.00   0.00
  40   1    -0.00  -0.00   0.00     0.00   0.00   0.00    -0.01  -0.01  -0.01
  41   1    -0.00  -0.00   0.00    -0.10   0.10  -0.07    -0.16   0.16  -0.10
  42   1    -0.00  -0.00  -0.00     0.04   0.03  -0.05     0.06   0.05  -0.07
  43   8     0.00  -0.01  -0.00     0.00  -0.00  -0.00     0.00  -0.00   0.00
  44   6    -0.01   0.02   0.04    -0.00   0.00   0.00    -0.00   0.00   0.00
  45   8     0.00  -0.01  -0.03     0.00  -0.00  -0.00     0.00  -0.00  -0.00
  46   6    -0.00  -0.00  -0.00     0.00  -0.00  -0.00     0.00  -0.00  -0.00
  47   1    -0.00   0.00  -0.00    -0.00  -0.00   0.00    -0.00  -0.00   0.00
  48   1     0.00   0.00  -0.00    -0.00  -0.00  -0.00    -0.00  -0.00  -0.00
  49   1     0.00  -0.00   0.00    -0.00   0.00   0.00    -0.00   0.00   0.00
  50   8    -0.00   0.01  -0.01    -0.00  -0.00   0.00    -0.00  -0.00   0.00
  51   8     0.16   0.06  -0.57    -0.00   0.00   0.00    -0.00  -0.00   0.00
  52   6    -0.21  -0.08   0.76    -0.00   0.00  -0.00    -0.00   0.00  -0.00
  53   8    -0.01   0.02  -0.06     0.00  -0.00   0.00    -0.00   0.00   0.00
  54   6     0.05  -0.02  -0.04     0.00   0.00   0.00    -0.00  -0.00  -0.00
  55   1    -0.04   0.01   0.05     0.00   0.00   0.00     0.00  -0.00   0.00
  56   1     0.04   0.01  -0.02    -0.00  -0.00  -0.00     0.00   0.00   0.00
  57   1     0.01  -0.03  -0.03    -0.00  -0.00   0.00     0.00   0.00  -0.00
                    139                    140                    141
                        a                      a                      a 
 Frequencies --  2944.4413              2954.3034              2958.1006
 Red. masses --     1.9573                 1.6170                 1.6379
 Frc consts  --     0.0000                 0.0000                 0.0000
 IR Inten    --    49.5015                13.3533                22.4636
 Raman Activ --     0.0000                 0.0000                 0.0000
 Depolar     --     0.0000                 0.0000                 0.0000
 Atom AN      X      Y      Z        X      Y      Z        X      Y      Z
   1  53     0.00  -0.00   0.00    -0.00   0.00   0.00     0.00   0.00   0.00
   2   6     0.00   0.00  -0.00    -0.00  -0.00  -0.00     0.00   0.00   0.00
   3   6    -0.00  -0.00   0.00    -0.00  -0.00   0.00     0.00   0.00  -0.00
   4   6    -0.00   0.00   0.00    -0.00  -0.00   0.00    -0.00  -0.00  -0.00
   5   6    -0.00   0.00  -0.00     0.00  -0.00   0.00    -0.00   0.00  -0.00
   6   1     0.00   0.00  -0.00     0.00   0.00  -0.00    -0.00  -0.00   0.00
   7   6     0.00   0.00  -0.00     0.00   0.00  -0.00    -0.00  -0.00   0.00
   8   1    -0.00   0.00   0.00    -0.00   0.00  -0.00     0.00   0.00  -0.00
   9   6     0.00   0.00   0.00     0.00   0.00   0.00     0.00   0.00   0.00
  10   1     0.00  -0.00   0.00    -0.00   0.00  -0.00    -0.00  -0.00   0.00
  11   1    -0.00  -0.00   0.00    -0.00  -0.00   0.00     0.00   0.00  -0.00
  12   1    -0.00  -0.00  -0.00    -0.00  -0.00  -0.00    -0.00  -0.00  -0.00
  13   1     0.00  -0.00   0.00    -0.00   0.00   0.00     0.00   0.00   0.00
  14   8    -0.00   0.00  -0.00     0.00   0.00  -0.00    -0.00  -0.00   0.00
  15   7    -0.00   0.00  -0.00    -0.00  -0.00  -0.00    -0.00  -0.00  -0.00
  16   6     0.00  -0.00  -0.00     0.00  -0.00  -0.00    -0.00   0.00   0.01
  17   6     0.00  -0.00   0.00     0.00   0.00   0.00     0.00   0.00   0.00
  18   6     0.04  -0.05   0.02     0.01  -0.03  -0.04    -0.06   0.12   0.19
  19   6    -0.01  -0.00  -0.00     0.00   0.00   0.00     0.00  -0.01  -0.02
  20   6    -0.00   0.01  -0.00    -0.00   0.00   0.01     0.01  -0.00  -0.03
  21   6     0.05  -0.03   0.04     0.14   0.15   0.09     0.04   0.04   0.02
  22   6    -0.00   0.00  -0.00    -0.02  -0.02   0.00    -0.01  -0.01   0.00
  23   6    -0.01   0.01   0.01    -0.01  -0.01  -0.01    -0.01  -0.00  -0.00
  24   6     0.08  -0.20   0.17    -0.04   0.00   0.01     0.03   0.01  -0.01
  25   1    -0.12   0.13  -0.09     0.03  -0.04   0.01    -0.13   0.15  -0.07
  26   1    -0.02   0.03   0.05    -0.08   0.13   0.14     0.33  -0.57  -0.61
  27   1    -0.00  -0.00   0.00     0.00   0.00  -0.00    -0.01  -0.01   0.01
  28   1     0.04   0.01   0.01    -0.01  -0.00  -0.00     0.00  -0.00  -0.00
  29   1    -0.00  -0.00  -0.00     0.00  -0.00  -0.00    -0.00   0.04   0.05
  30   1     0.01  -0.02   0.01    -0.00   0.00   0.00     0.01  -0.01   0.00
  31   1    -0.01  -0.00   0.01     0.01   0.01  -0.01    -0.02  -0.02   0.02
  32   1     0.00  -0.00  -0.00     0.00  -0.01  -0.01    -0.03   0.05   0.08
  33   1    -0.07  -0.05  -0.05    -0.65  -0.41  -0.43    -0.17  -0.11  -0.11
  34   1    -0.12   0.15  -0.09     0.16  -0.14   0.12     0.05  -0.04   0.03
  35   1    -0.01  -0.00   0.01     0.02   0.02  -0.04     0.01   0.01  -0.02
  36   1     0.01  -0.01   0.01    -0.01   0.01  -0.01    -0.01   0.00  -0.00
  37   1     0.00   0.00   0.00     0.06   0.05   0.03     0.02   0.02   0.01
  38   1     0.03  -0.02  -0.02    -0.00   0.00   0.00     0.00  -0.00  -0.00
  39   1    -0.00  -0.00   0.00     0.01   0.01  -0.01     0.00   0.00  -0.00
  40   1    -0.00   0.00   0.00     0.02   0.03   0.03     0.01   0.01   0.02
  41   1    -0.51   0.52  -0.32     0.08  -0.09   0.06    -0.04   0.05  -0.04
  42   1     0.24   0.22  -0.28     0.07   0.09  -0.10    -0.06  -0.07   0.09
  43   8    -0.00   0.00  -0.00     0.00  -0.00  -0.00    -0.00  -0.00  -0.00
  44   6     0.00  -0.00  -0.00    -0.00   0.00   0.00    -0.00   0.00   0.00
  45   8    -0.00   0.00   0.00     0.00   0.00  -0.00     0.00   0.00  -0.00
  46   6    -0.00  -0.00  -0.00    -0.00  -0.00  -0.00     0.00   0.00   0.00
  47   1     0.00   0.00  -0.00     0.00   0.00  -0.00     0.00   0.00   0.00
  48   1     0.00   0.00   0.00     0.00   0.00   0.00    -0.00  -0.00  -0.00
  49   1     0.00  -0.00  -0.00     0.00  -0.00  -0.00    -0.00   0.00   0.00
  50   8     0.00   0.00  -0.00     0.00  -0.00  -0.00    -0.00  -0.00  -0.00
  51   8     0.00   0.00  -0.00     0.00  -0.00   0.00     0.00   0.00  -0.00
  52   6    -0.00  -0.00   0.00    -0.00   0.00  -0.00     0.00  -0.00   0.00
  53   8    -0.00   0.00  -0.00     0.00  -0.00   0.00    -0.00   0.00  -0.00
  54   6     0.00   0.00  -0.00     0.00  -0.00   0.00     0.00   0.00   0.00
  55   1     0.00  -0.00   0.00    -0.00   0.00  -0.00     0.00   0.00   0.00
  56   1    -0.00  -0.00  -0.00    -0.00  -0.00  -0.00    -0.00  -0.00  -0.00
  57   1    -0.00  -0.00   0.00     0.00   0.00   0.00    -0.00  -0.00   0.00
                    142                    143                    144
                        a                      a                      a 
 Frequencies --  2969.7338              2972.4098              2974.7797
 Red. masses --     1.8035                 1.5843                 1.8586
 Frc consts  --     0.0000                 0.0000                 0.0000
 IR Inten    --    10.3774                37.2657                38.2959
 Raman Activ --     0.0000                 0.0000                 0.0000
 Depolar     --     0.0000                 0.0000                 0.0000
 Atom AN      X      Y      Z        X      Y      Z        X      Y      Z
   1  53     0.00  -0.00   0.00     0.00   0.00  -0.00    -0.00  -0.00  -0.00
   2   6     0.00   0.00   0.00    -0.00   0.00  -0.00    -0.00  -0.00  -0.00
   3   6     0.00   0.00  -0.00    -0.00  -0.00   0.00    -0.00  -0.00   0.00
   4   6    -0.00   0.00  -0.00     0.00   0.00   0.00    -0.00  -0.00   0.00
   5   6    -0.00  -0.00  -0.00     0.00  -0.00   0.00     0.00  -0.00   0.00
   6   1    -0.00  -0.00   0.00     0.00   0.00  -0.00     0.00   0.00  -0.00
   7   6    -0.00  -0.00   0.00     0.00   0.00  -0.00     0.00   0.00  -0.00
   8   1     0.00  -0.00   0.00    -0.00   0.00  -0.00    -0.00   0.00  -0.00
   9   6     0.00   0.00   0.00     0.00   0.00   0.00     0.00   0.00   0.00
  10   1    -0.00  -0.00  -0.00    -0.00   0.00  -0.00    -0.00   0.00  -0.00
  11   1     0.00   0.00  -0.00    -0.00  -0.00   0.00    -0.00  -0.00   0.00
  12   1    -0.00  -0.00  -0.00    -0.00  -0.00  -0.00    -0.00  -0.00  -0.00
  13   1     0.00  -0.00  -0.00    -0.00  -0.00   0.00     0.00  -0.00  -0.00
  14   8    -0.00   0.00  -0.00     0.00   0.00  -0.00    -0.00   0.00   0.00
  15   7    -0.00   0.00  -0.00     0.00  -0.00   0.00     0.00   0.00  -0.00
  16   6     0.00  -0.00   0.00    -0.00  -0.00   0.00    -0.00   0.00   0.00
  17   6     0.00   0.00   0.00    -0.00  -0.00   0.00     0.01   0.00  -0.00
  18   6     0.00  -0.00  -0.00     0.02  -0.02  -0.04     0.00  -0.00  -0.00
  19   6    -0.00  -0.00   0.00    -0.01  -0.01  -0.00    -0.00  -0.01  -0.01
  20   6     0.00   0.00  -0.00    -0.03   0.01   0.03    -0.05   0.02   0.05
  21   6     0.00   0.00   0.00     0.03   0.02   0.01     0.01   0.02   0.01
  22   6     0.00   0.00  -0.00    -0.04  -0.03   0.02     0.19   0.15  -0.10
  23   6     0.00   0.00   0.00    -0.01   0.01   0.01    -0.02  -0.02  -0.00
  24   6    -0.00  -0.00   0.00     0.18   0.05  -0.10     0.03   0.01  -0.02
  25   1    -0.00   0.00  -0.00     0.02  -0.02   0.01     0.00   0.00   0.00
  26   1    -0.00   0.00   0.00    -0.06   0.11   0.12    -0.00   0.00   0.00
  27   1     0.01   0.01  -0.02     0.01   0.01  -0.01    -0.01  -0.01   0.00
  28   1     0.00   0.00   0.00     0.03   0.00   0.01     0.01   0.00   0.00
  29   1    -0.00   0.00   0.00    -0.00   0.01   0.01    -0.00   0.03   0.04
  30   1     0.00  -0.00   0.00     0.03  -0.05   0.02     0.06  -0.10   0.04
  31   1    -0.01  -0.01   0.01     0.06   0.07  -0.07     0.08   0.10  -0.09
  32   1    -0.00   0.00   0.00     0.02  -0.05  -0.08     0.03  -0.08  -0.11
  33   1    -0.00  -0.00  -0.00    -0.09  -0.06  -0.06    -0.07  -0.04  -0.05
  34   1     0.00   0.00   0.00     0.01  -0.01   0.01     0.02  -0.02   0.02
  35   1    -0.01  -0.01   0.01     0.08   0.07  -0.12    -0.38  -0.37   0.61
  36   1    -0.00   0.00  -0.00     0.01  -0.02   0.02    -0.04   0.08  -0.07
  37   1    -0.00  -0.00  -0.00     0.06   0.06   0.04    -0.26  -0.24  -0.18
  38   1     0.00  -0.00  -0.00     0.03  -0.02  -0.02     0.01  -0.01  -0.01
  39   1    -0.00  -0.00   0.00     0.01   0.01  -0.00     0.03   0.03  -0.02
  40   1    -0.01  -0.01  -0.01    -0.01  -0.01  -0.02     0.03   0.04   0.05
  41   1    -0.00   0.00  -0.00    -0.24   0.29  -0.19    -0.03   0.04  -0.03
  42   1     0.00   0.00  -0.00    -0.39  -0.45   0.55    -0.06  -0.07   0.08
  43   8    -0.00  -0.00  -0.00     0.00  -0.00  -0.00     0.00   0.00  -0.00
  44   6     0.01   0.00   0.01    -0.00   0.00   0.00    -0.00   0.00   0.00
  45   8    -0.00  -0.00  -0.00     0.00  -0.00  -0.00    -0.00  -0.00  -0.00
  46   6     0.22   0.13   0.06     0.00   0.00  -0.00    -0.00  -0.00  -0.00
  47   1    -0.12   0.00   0.16    -0.00  -0.00   0.00    -0.00  -0.00   0.00
  48   1    -0.70  -0.50  -0.38    -0.00  -0.00  -0.00     0.01   0.01   0.01
  49   1     0.03   0.03   0.01     0.00   0.00   0.00    -0.00   0.00  -0.00
  50   8    -0.00   0.00  -0.00     0.00  -0.00   0.00     0.00   0.00   0.00
  51   8    -0.00  -0.00  -0.00     0.00  -0.00   0.00     0.00  -0.00   0.00
  52   6    -0.00   0.00   0.00    -0.00   0.00  -0.00    -0.00   0.00  -0.00
  53   8    -0.00   0.00  -0.00     0.00  -0.00   0.00     0.00  -0.00   0.00
  54   6     0.00   0.00  -0.00    -0.00  -0.00   0.00     0.00  -0.00   0.00
  55   1     0.00  -0.00   0.00    -0.00   0.00  -0.00    -0.00   0.00  -0.00
  56   1    -0.00  -0.00  -0.00     0.00   0.00   0.00    -0.00  -0.00  -0.00
  57   1    -0.00  -0.00   0.00     0.00   0.00  -0.00    -0.00  -0.00   0.00
                    145                    146                    147
                        a                      a                      a 
 Frequencies --  2976.1730              2979.6996              2981.6402
 Red. masses --     1.8689                 1.6573                 1.7871
 Frc consts  --     0.0000                 0.0000                 0.0000
 IR Inten    --    17.7613                 5.0804                11.3105
 Raman Activ --     0.0000                 0.0000                 0.0000
 Depolar     --     0.0000                 0.0000                 0.0000
 Atom AN      X      Y      Z        X      Y      Z        X      Y      Z
   1  53    -0.00  -0.00   0.00     0.00   0.00  -0.00     0.00  -0.00  -0.00
   2   6     0.00  -0.00  -0.00    -0.00   0.00   0.00    -0.00   0.00   0.00
   3   6     0.00   0.00  -0.00    -0.00  -0.00   0.00    -0.00  -0.00   0.00
   4   6    -0.00   0.00  -0.00    -0.00  -0.00   0.00     0.00  -0.00   0.00
   5   6    -0.00  -0.00   0.00     0.00  -0.00   0.00     0.00  -0.00   0.00
   6   1    -0.00  -0.01   0.00     0.00   0.01  -0.00     0.00   0.00  -0.00
   7   6     0.00   0.00  -0.00    -0.00  -0.00   0.00    -0.00  -0.00   0.00
   8   1     0.00  -0.00   0.00    -0.00   0.00  -0.00    -0.00   0.00  -0.00
   9   6     0.00   0.00   0.00     0.00   0.00   0.00    -0.00  -0.00  -0.00
  10   1    -0.00   0.00  -0.00    -0.00   0.00  -0.00    -0.00   0.00  -0.00
  11   1    -0.00  -0.00   0.00     0.00   0.00  -0.00     0.00   0.00  -0.00
  12   1    -0.00  -0.00  -0.00    -0.00  -0.00  -0.00     0.00   0.00   0.00
  13   1     0.00   0.00   0.00     0.00  -0.00   0.00     0.00  -0.00   0.00
  14   8    -0.00  -0.00   0.00     0.00   0.00   0.00     0.00   0.00  -0.00
  15   7    -0.00   0.00  -0.00    -0.00  -0.00  -0.00    -0.00   0.00  -0.00
  16   6     0.01  -0.00  -0.00    -0.00  -0.00   0.00    -0.00  -0.00  -0.00
  17   6     0.00   0.00  -0.00     0.00   0.00   0.00    -0.00  -0.00  -0.00
  18   6     0.01  -0.01  -0.02    -0.00   0.01   0.01     0.00  -0.00  -0.00
  19   6    -0.01   0.05   0.08     0.02   0.10   0.13    -0.00   0.03   0.01
  20   6     0.17  -0.09  -0.16    -0.08  -0.14   0.03    -0.01  -0.06  -0.00
  21   6     0.01   0.01   0.00     0.00  -0.00   0.00    -0.00  -0.00  -0.00
  22   6     0.04   0.04  -0.03    -0.01  -0.00  -0.02     0.05   0.00   0.10
  23   6    -0.01   0.00   0.01     0.01   0.05   0.05    -0.06  -0.16  -0.16
  24   6     0.03   0.01  -0.02    -0.01  -0.00   0.01     0.01  -0.00   0.00
  25   1     0.01  -0.01   0.00    -0.00   0.01  -0.00     0.00   0.00  -0.00
  26   1    -0.03   0.05   0.05     0.02  -0.03  -0.03    -0.01   0.01   0.01
  27   1     0.05   0.04  -0.05     0.03   0.03  -0.01    -0.04  -0.02   0.05
  28   1    -0.04  -0.00  -0.00    -0.13  -0.02  -0.03     0.03   0.01   0.02
  29   1     0.02  -0.20  -0.23     0.05  -0.36  -0.42     0.01  -0.08  -0.10
  30   1    -0.22   0.34  -0.16     0.02  -0.05   0.02    -0.02   0.02  -0.01
  31   1    -0.27  -0.32   0.30     0.36   0.37  -0.41     0.10   0.10  -0.12
  32   1    -0.13   0.29   0.42    -0.10   0.17   0.27    -0.05   0.08   0.13
  33   1    -0.04  -0.02  -0.02    -0.00  -0.00  -0.00     0.02   0.01   0.01
  34   1     0.01  -0.00   0.00    -0.00   0.00  -0.00    -0.00   0.00  -0.00
  35   1    -0.10  -0.10   0.15    -0.02  -0.02   0.02     0.12   0.11  -0.16
  36   1    -0.00   0.01  -0.01     0.02  -0.02   0.01    -0.08   0.07  -0.06
  37   1    -0.05  -0.04  -0.04     0.05   0.05   0.03    -0.20  -0.19  -0.11
  38   1     0.03  -0.02  -0.02     0.07  -0.03  -0.04    -0.14   0.05   0.06
  39   1     0.00   0.00  -0.00    -0.03  -0.03   0.03     0.03   0.02  -0.05
  40   1    -0.00  -0.00  -0.01    -0.09  -0.13  -0.15     0.33   0.48   0.56
  41   1    -0.05   0.06  -0.04     0.01  -0.01   0.01    -0.02   0.02  -0.01
  42   1    -0.08  -0.09   0.11     0.02   0.02  -0.03    -0.01  -0.01   0.01
  43   8    -0.00   0.00   0.00     0.00  -0.00  -0.00     0.00  -0.00   0.00
  44   6     0.00  -0.00  -0.00    -0.00   0.00   0.00     0.00   0.00   0.00
  45   8    -0.00   0.00   0.00     0.00  -0.00  -0.00    -0.00  -0.00   0.00
  46   6    -0.00  -0.00  -0.00     0.00  -0.00  -0.00     0.00   0.00   0.00
  47   1     0.00   0.00  -0.00    -0.00  -0.00   0.00    -0.00   0.00   0.00
  48   1     0.01   0.01   0.01    -0.00  -0.00  -0.00    -0.01  -0.01  -0.01
  49   1     0.00  -0.00  -0.00    -0.00   0.00   0.00     0.00  -0.00  -0.00
  50   8     0.00  -0.00  -0.00    -0.00   0.00   0.00    -0.00   0.00   0.00
  51   8     0.00  -0.00   0.00     0.00  -0.00  -0.00    -0.00   0.00  -0.00
  52   6    -0.00   0.00  -0.00    -0.00   0.00   0.00     0.00  -0.00   0.00
  53   8     0.00  -0.00   0.00    -0.00   0.00  -0.00    -0.00   0.00  -0.00
  54   6     0.00   0.00   0.00     0.00   0.00   0.00    -0.00  -0.00   0.00
  55   1    -0.00   0.00  -0.00    -0.00   0.00  -0.00     0.00  -0.00   0.00
  56   1    -0.00  -0.00  -0.00    -0.00  -0.00  -0.00    -0.00  -0.00  -0.00
  57   1    -0.00  -0.00   0.00    -0.00  -0.00   0.00     0.00   0.00  -0.00
                    148                    149                    150
                        a                      a                      a 
 Frequencies --  2984.1064              2985.4919              2987.4420
 Red. masses --     1.9161                 1.9008                 1.5980
 Frc consts  --     0.0000                 0.0000                 0.0000
 IR Inten    --     5.8221                37.0130                20.1934
 Raman Activ --     0.0000                 0.0000                 0.0000
 Depolar     --     0.0000                 0.0000                 0.0000
 Atom AN      X      Y      Z        X      Y      Z        X      Y      Z
   1  53    -0.00  -0.00   0.00    -0.00   0.00   0.00     0.00  -0.00  -0.00
   2   6     0.00  -0.00  -0.00    -0.00   0.00  -0.00    -0.00  -0.00  -0.00
   3   6    -0.00  -0.00   0.00    -0.00  -0.00  -0.00    -0.00  -0.00   0.00
   4   6    -0.00   0.00  -0.00    -0.00  -0.00   0.00     0.00   0.00   0.00
   5   6     0.00  -0.00   0.00     0.00  -0.00   0.00     0.00  -0.00   0.00
   6   1     0.00   0.00  -0.00     0.00   0.00  -0.00    -0.00   0.00  -0.00
   7   6     0.00   0.00  -0.00     0.00   0.00  -0.00    -0.00  -0.00   0.00
   8   1     0.00  -0.00   0.00    -0.00   0.00  -0.00    -0.00   0.00  -0.00
   9   6     0.00   0.00   0.00     0.00   0.00   0.00     0.00   0.00   0.00
  10   1    -0.00   0.00  -0.00    -0.00   0.00  -0.00    -0.00   0.00  -0.00
  11   1    -0.00  -0.00   0.00    -0.00  -0.00   0.00     0.00   0.00  -0.00
  12   1    -0.00  -0.00  -0.00    -0.00  -0.00  -0.00     0.00   0.00   0.00
  13   1     0.00  -0.00  -0.00    -0.00   0.00   0.00    -0.00  -0.00  -0.00
  14   8     0.00  -0.00  -0.00     0.00  -0.00   0.00     0.00   0.00   0.00
  15   7    -0.00  -0.00  -0.00    -0.00   0.00   0.00    -0.00  -0.00   0.00
  16   6     0.00   0.00   0.00     0.00  -0.01  -0.01    -0.00   0.00  -0.01
  17   6     0.00   0.00   0.00     0.00   0.00  -0.00     0.00   0.00   0.00
  18   6    -0.00   0.00   0.00     0.01  -0.01  -0.01     0.00  -0.01  -0.02
  19   6    -0.00   0.00   0.00     0.03  -0.07  -0.18    -0.00  -0.04  -0.05
  20   6    -0.00   0.00   0.00     0.03  -0.20   0.02    -0.04   0.09  -0.20
  21   6     0.00   0.00   0.00     0.00  -0.00   0.00    -0.00  -0.00  -0.00
  22   6     0.00   0.00   0.00    -0.01   0.01  -0.02     0.00   0.00   0.00
  23   6     0.00   0.00   0.00     0.01  -0.00   0.02     0.00   0.00   0.01
  24   6    -0.00  -0.00   0.00     0.00  -0.00  -0.00     0.00   0.00  -0.00
  25   1    -0.00   0.00  -0.00    -0.00   0.01  -0.01     0.03  -0.03   0.02
  26   1     0.00  -0.00  -0.00    -0.03   0.04   0.05    -0.03   0.06   0.06
  27   1     0.00   0.00  -0.00    -0.17  -0.13   0.19    -0.00  -0.01  -0.01
  28   1    -0.00  -0.00  -0.00     0.10   0.01   0.01     0.03   0.00   0.01
  29   1     0.00  -0.01  -0.01    -0.05   0.39   0.44    -0.02   0.15   0.17
  30   1     0.00  -0.00   0.00    -0.24   0.33  -0.14     0.39  -0.57   0.20
  31   1    -0.00  -0.00   0.00     0.21   0.19  -0.23    -0.08  -0.07   0.06
  32   1     0.00  -0.00  -0.01    -0.10   0.18   0.31    -0.17   0.34   0.45
  33   1    -0.00  -0.00  -0.00     0.00   0.00   0.00     0.00   0.00   0.00
  34   1    -0.00   0.00  -0.00    -0.00   0.00  -0.00     0.00  -0.00   0.00
  35   1     0.00   0.00  -0.00    -0.03  -0.02   0.03    -0.00  -0.00   0.00
  36   1     0.00   0.00   0.00     0.04  -0.03   0.03    -0.00   0.00  -0.00
  37   1    -0.00  -0.00  -0.00     0.03   0.03   0.01    -0.00  -0.00  -0.00
  38   1     0.00  -0.00  -0.00    -0.02   0.01   0.02    -0.01   0.01   0.01
  39   1    -0.00  -0.00   0.00     0.03   0.04  -0.02     0.01   0.01  -0.01
  40   1    -0.00  -0.00  -0.00    -0.03  -0.05  -0.06    -0.01  -0.02  -0.02
  41   1     0.00  -0.00   0.00    -0.00   0.00  -0.00     0.01  -0.00   0.00
  42   1     0.00   0.00  -0.00    -0.00  -0.00   0.01    -0.01  -0.01   0.01
  43   8     0.00   0.00   0.00    -0.00   0.00  -0.00     0.00   0.00   0.00
  44   6     0.00   0.00  -0.00     0.00  -0.00   0.00    -0.00  -0.00  -0.00
  45   8     0.00   0.00   0.00    -0.00  -0.00   0.00     0.00   0.00   0.00
  46   6     0.00   0.00  -0.00     0.00   0.00   0.00    -0.00  -0.00   0.00
  47   1    -0.00  -0.00   0.00     0.00   0.00  -0.00     0.01   0.00  -0.01
  48   1    -0.00  -0.00  -0.00    -0.01  -0.01  -0.00     0.00   0.00   0.00
  49   1     0.00  -0.00  -0.00     0.00  -0.01  -0.00    -0.00   0.00   0.00
  50   8     0.00   0.00  -0.00     0.00  -0.00  -0.00     0.00   0.00   0.00
  51   8     0.00   0.00  -0.00     0.00  -0.00   0.00     0.00  -0.00   0.00
  52   6    -0.00  -0.01   0.00    -0.00  -0.00  -0.00    -0.00   0.00  -0.00
  53   8     0.00   0.00  -0.00     0.00  -0.00   0.00     0.00  -0.00   0.00
  54   6    -0.16  -0.24  -0.03    -0.00  -0.00  -0.00    -0.00  -0.00  -0.00
  55   1    -0.01  -0.04   0.01    -0.00  -0.00  -0.00     0.00  -0.00   0.00
  56   1     0.12   0.28   0.40     0.00   0.00   0.01     0.00   0.00   0.00
  57   1     0.47   0.59  -0.31     0.01   0.01  -0.01     0.00   0.00  -0.00
                    151                    152                    153
                        a                      a                      a 
 Frequencies --  2990.7078              2992.8778              2995.4728
 Red. masses --     1.8742                 1.4312                 1.4213
 Frc consts  --     0.0000                 0.0000                 0.0000
 IR Inten    --    33.7723                10.7694                 1.3985
 Raman Activ --     0.0000                 0.0000                 0.0000
 Depolar     --     0.0000                 0.0000                 0.0000
 Atom AN      X      Y      Z        X      Y      Z        X      Y      Z
   1  53    -0.00   0.00   0.00    -0.00  -0.00  -0.00     0.00  -0.00  -0.00
   2   6    -0.00  -0.00  -0.00    -0.00  -0.00   0.00    -0.00   0.00  -0.00
   3   6    -0.00  -0.00   0.00    -0.00  -0.00   0.00     0.00   0.00  -0.00
   4   6    -0.00  -0.00   0.00     0.00  -0.00   0.00     0.00  -0.00   0.00
   5   6     0.00  -0.00   0.00     0.00  -0.00   0.00     0.00  -0.00   0.00
   6   1     0.00   0.00  -0.00     0.00   0.00  -0.00    -0.00  -0.00   0.00
   7   6     0.00   0.00  -0.00    -0.00  -0.00   0.00     0.00   0.00  -0.00
   8   1    -0.00  -0.00  -0.00    -0.00  -0.00  -0.00    -0.00   0.00  -0.00
   9   6     0.00   0.00   0.00     0.00   0.00  -0.00     0.00   0.00   0.00
  10   1    -0.00   0.00  -0.00     0.00  -0.00   0.00    -0.00   0.00  -0.00
  11   1    -0.00  -0.00   0.00     0.00   0.00  -0.00    -0.00  -0.00   0.00
  12   1    -0.00  -0.00  -0.00     0.00   0.00   0.00    -0.00   0.00  -0.00
  13   1    -0.00   0.00  -0.00     0.00   0.00  -0.00     0.00  -0.00   0.00
  14   8     0.00  -0.00  -0.00     0.00  -0.00   0.00    -0.00   0.00   0.00
  15   7    -0.00   0.00   0.00     0.00   0.00  -0.00    -0.00   0.00  -0.00
  16   6     0.00  -0.00  -0.00    -0.00  -0.00  -0.00     0.00  -0.00   0.00
  17   6     0.01   0.00   0.01     0.00  -0.01   0.00    -0.00  -0.00  -0.00
  18   6     0.00  -0.00   0.00     0.00  -0.00  -0.00    -0.00   0.00   0.00
  19   6     0.00  -0.01  -0.00     0.00   0.00  -0.01     0.00   0.00   0.00
  20   6     0.01  -0.01   0.00     0.00  -0.00  -0.00    -0.00  -0.00   0.00
  21   6     0.01   0.01   0.01    -0.00  -0.01  -0.00     0.00  -0.00   0.00
  22   6     0.15  -0.01   0.20     0.07  -0.18   0.04    -0.00  -0.00  -0.00
  23   6     0.05   0.09   0.06    -0.01  -0.01  -0.02    -0.00  -0.00  -0.00
  24   6     0.00  -0.00  -0.00     0.00  -0.00   0.00     0.00   0.00  -0.00
  25   1    -0.00   0.00  -0.00    -0.00   0.00  -0.00     0.00  -0.00   0.00
  26   1    -0.00   0.00   0.00    -0.00   0.01   0.01     0.00  -0.00  -0.00
  27   1     0.02   0.01  -0.03    -0.02  -0.01   0.02     0.00   0.00  -0.00
  28   1    -0.02  -0.01  -0.01     0.01   0.00   0.00    -0.00  -0.00  -0.00
  29   1    -0.00   0.04   0.05    -0.00   0.01   0.01     0.00  -0.00  -0.00
  30   1    -0.02   0.03  -0.01    -0.01   0.01  -0.00    -0.00   0.00  -0.00
  31   1     0.00   0.00  -0.00     0.00   0.00  -0.00     0.00   0.00  -0.00
  32   1    -0.00   0.01   0.01    -0.00   0.01   0.01     0.00  -0.00  -0.00
  33   1    -0.04  -0.03  -0.03     0.04   0.02   0.02     0.00   0.00   0.00
  34   1    -0.00   0.01  -0.00    -0.02   0.02  -0.02    -0.00   0.00  -0.00
  35   1     0.19   0.17  -0.23    -0.06  -0.09   0.11    -0.00  -0.00   0.00
  36   1    -0.30   0.26  -0.25    -0.54   0.42  -0.46     0.00  -0.00   0.00
  37   1    -0.43  -0.41  -0.24     0.35   0.29   0.21     0.00   0.00   0.00
  38   1     0.06  -0.02  -0.03     0.00  -0.00  -0.00    -0.00  -0.00  -0.00
  39   1    -0.08  -0.08   0.07    -0.01  -0.01   0.01     0.00   0.00  -0.00
  40   1    -0.15  -0.22  -0.26     0.03   0.05   0.05     0.00   0.00   0.00
  41   1    -0.00   0.00  -0.00    -0.01   0.01  -0.00    -0.00   0.00  -0.00
  42   1    -0.00  -0.00   0.00    -0.00  -0.00   0.00    -0.00  -0.00   0.00
  43   8     0.00   0.00  -0.00    -0.00   0.00   0.00     0.00  -0.00  -0.00
  44   6     0.00  -0.00   0.00     0.00  -0.00  -0.00    -0.00  -0.00   0.00
  45   8     0.00   0.00  -0.00    -0.00   0.00   0.00     0.00  -0.00  -0.00
  46   6    -0.00  -0.00   0.00     0.00   0.00  -0.00    -0.03  -0.01   0.05
  47   1     0.01   0.00  -0.01    -0.01  -0.00   0.01     0.18   0.02  -0.17
  48   1     0.00   0.00   0.00    -0.00  -0.00  -0.00    -0.05  -0.03  -0.02
  49   1    -0.00   0.00   0.00     0.00  -0.00  -0.00    -0.02   0.05   0.02
  50   8     0.00   0.00   0.00     0.00   0.00   0.00    -0.00   0.00   0.00
  51   8     0.00  -0.00   0.00    -0.00   0.00   0.00    -0.00  -0.00   0.00
  52   6    -0.00   0.00  -0.00     0.00  -0.00  -0.00     0.00  -0.00  -0.01
  53   8     0.00  -0.00   0.00     0.00  -0.00   0.00    -0.00   0.00   0.00
  54   6     0.00   0.00  -0.00    -0.00  -0.00   0.00     0.04  -0.05  -0.17
  55   1     0.00   0.00  -0.00    -0.00   0.00  -0.00    -0.07   0.07  -0.13
  56   1    -0.00  -0.00  -0.00     0.00   0.00   0.00     0.22   0.48   0.59
  57   1    -0.00  -0.00   0.00     0.00   0.00  -0.00    -0.29  -0.37   0.16
                    154                    155                    156
                        a                      a                      a 
 Frequencies --  2995.5976              2999.9996              3004.4312
 Red. masses --     1.5049                 1.5933                 1.7519
 Frc consts  --     0.0000                 0.0000                 0.0000
 IR Inten    --     8.3263                 6.8531                 8.2702
 Raman Activ --     0.0000                 0.0000                 0.0000
 Depolar     --     0.0000                 0.0000                 0.0000
 Atom AN      X      Y      Z        X      Y      Z        X      Y      Z
   1  53    -0.00  -0.00   0.00     0.00   0.00  -0.00     0.00   0.00  -0.00
   2   6     0.00   0.00  -0.00    -0.00   0.00   0.00     0.00   0.00   0.00
   3   6     0.00   0.00  -0.00    -0.00  -0.00   0.00    -0.00  -0.00   0.00
   4   6     0.00  -0.00   0.00     0.00  -0.00   0.00    -0.00  -0.00   0.00
   5   6    -0.00   0.00  -0.00     0.00  -0.00   0.00     0.00  -0.00   0.00
   6   1    -0.00  -0.00   0.00     0.00   0.00  -0.00     0.00   0.00  -0.00
   7   6     0.00   0.00  -0.00    -0.00  -0.00   0.00    -0.00  -0.00   0.00
   8   1    -0.00   0.00  -0.00    -0.00   0.00  -0.00    -0.00   0.00  -0.00
   9   6    -0.00  -0.00  -0.00     0.00   0.00   0.00     0.00  -0.00   0.00
  10   1     0.00  -0.00   0.00    -0.00   0.00  -0.00    -0.00   0.00  -0.00
  11   1    -0.00  -0.00   0.00     0.00   0.00  -0.00     0.00   0.00  -0.00
  12   1     0.00   0.00   0.00    -0.00  -0.00  -0.00    -0.00  -0.00  -0.00
  13   1     0.00  -0.00  -0.00     0.00  -0.00   0.00    -0.00  -0.00   0.00
  14   8     0.00  -0.00  -0.00     0.00   0.00   0.00     0.00   0.00  -0.00
  15   7     0.00   0.00  -0.00    -0.00  -0.00   0.00    -0.00  -0.00   0.00
  16   6    -0.00  -0.00   0.00    -0.00  -0.01   0.00    -0.00  -0.00   0.00
  17   6    -0.00  -0.00  -0.00     0.00   0.00  -0.00    -0.00  -0.00   0.01
  18   6     0.00   0.00   0.00     0.00  -0.00   0.00     0.00  -0.00   0.00
  19   6    -0.00  -0.00   0.00    -0.12  -0.13   0.11    -0.03  -0.04   0.05
  20   6    -0.00  -0.00   0.00    -0.00  -0.05   0.02    -0.00  -0.01   0.01
  21   6    -0.00  -0.00  -0.00    -0.00  -0.00  -0.00    -0.00  -0.00  -0.00
  22   6    -0.00  -0.00  -0.00    -0.01   0.00  -0.01     0.01  -0.01   0.03
  23   6     0.00  -0.00  -0.00     0.03   0.03  -0.05    -0.16  -0.13   0.14
  24   6     0.00   0.00  -0.00    -0.00  -0.00   0.00    -0.01  -0.00   0.00
  25   1    -0.00   0.00  -0.00    -0.01   0.01  -0.00    -0.00   0.00  -0.00
  26   1     0.00  -0.00  -0.00     0.00  -0.00  -0.00     0.00  -0.00  -0.00
  27   1     0.01   0.01  -0.02     0.49   0.34  -0.62     0.17   0.12  -0.21
  28   1    -0.00  -0.00  -0.00    -0.04  -0.02   0.00    -0.05  -0.01  -0.01
  29   1    -0.00  -0.00   0.00    -0.04   0.16   0.21    -0.01   0.02   0.04
  30   1    -0.00   0.00  -0.00    -0.05   0.07  -0.03    -0.01   0.02  -0.01
  31   1     0.00   0.00  -0.00     0.08   0.07  -0.09     0.02   0.02  -0.02
  32   1     0.00  -0.00  -0.00    -0.02   0.03   0.06    -0.00   0.00   0.01
  33   1     0.00   0.00   0.00     0.00   0.00   0.00     0.02   0.01   0.01
  34   1    -0.00   0.00  -0.00    -0.00   0.00  -0.00    -0.01   0.01  -0.00
  35   1    -0.00  -0.00   0.01    -0.02  -0.01   0.02     0.04   0.03  -0.05
  36   1    -0.00   0.00  -0.00     0.02  -0.01   0.01    -0.04   0.03  -0.03
  37   1     0.01   0.01   0.00     0.03   0.03   0.02    -0.02  -0.02  -0.01
  38   1    -0.00   0.00   0.00     0.01   0.00  -0.01     0.09  -0.09  -0.06
  39   1    -0.00  -0.00   0.00    -0.17  -0.20   0.12     0.52   0.61  -0.40
  40   1     0.00   0.00   0.00     0.05   0.07   0.07    -0.05  -0.05  -0.02
  41   1    -0.00   0.00  -0.00     0.00  -0.00   0.00     0.01  -0.01   0.01
  42   1    -0.00  -0.00   0.00     0.01   0.01  -0.01     0.01   0.02  -0.02
  43   8     0.00  -0.00  -0.00     0.00  -0.00  -0.00     0.00  -0.00  -0.00
  44   6    -0.00  -0.00   0.01    -0.00   0.00   0.00    -0.00   0.00   0.00
  45   8     0.00  -0.00  -0.00     0.00  -0.00  -0.00     0.00  -0.00  -0.00
  46   6    -0.12  -0.04   0.17     0.00  -0.01  -0.01     0.00  -0.01  -0.00
  47   1     0.65   0.08  -0.61    -0.02  -0.00   0.02    -0.00  -0.00   0.00
  48   1    -0.17  -0.11  -0.06     0.02   0.01   0.01     0.00   0.00   0.00
  49   1    -0.08   0.17   0.08    -0.01   0.02   0.01    -0.01   0.02   0.01
  50   8     0.00   0.00  -0.00    -0.00  -0.00   0.00    -0.00   0.00   0.00
  51   8     0.00   0.00  -0.00     0.00  -0.00   0.00     0.00   0.00  -0.00
  52   6    -0.00   0.00   0.00    -0.00   0.00  -0.00    -0.00   0.00   0.00
  53   8     0.00  -0.00  -0.00     0.00   0.00   0.00    -0.00   0.00  -0.00
  54   6    -0.01   0.01   0.05    -0.00  -0.00  -0.00    -0.00   0.00  -0.00
  55   1     0.02  -0.02   0.04    -0.00   0.00  -0.00     0.00  -0.00   0.00
  56   1    -0.06  -0.13  -0.16     0.00   0.00   0.00    -0.00  -0.00  -0.00
  57   1     0.08   0.10  -0.04    -0.00  -0.00   0.00    -0.00   0.00  -0.00
                    157                    158                    159
                        a                      a                      a 
 Frequencies --  3013.2792              3020.7632              3026.4519
 Red. masses --     1.6049                 1.8377                 1.8301
 Frc consts  --     0.0000                 0.0000                 0.0000
 IR Inten    --     1.8220                18.5911                12.8949
 Raman Activ --     0.0000                 0.0000                 0.0000
 Depolar     --     0.0000                 0.0000                 0.0000
 Atom AN      X      Y      Z        X      Y      Z        X      Y      Z
   1  53     0.00   0.00   0.00     0.00   0.00  -0.00    -0.00   0.00   0.00
   2   6     0.00   0.00   0.00    -0.00  -0.00  -0.00     0.00   0.00   0.00
   3   6     0.00   0.00  -0.00     0.00   0.00   0.00     0.00   0.00  -0.00
   4   6     0.00  -0.00   0.00    -0.00   0.00  -0.00    -0.00   0.00  -0.00
   5   6    -0.00   0.00  -0.00     0.00  -0.00   0.00    -0.00   0.00  -0.00
   6   1    -0.00  -0.00   0.00    -0.00  -0.00   0.00    -0.00  -0.00   0.00
   7   6     0.00  -0.00   0.00     0.00   0.00  -0.00     0.00   0.00  -0.00
   8   1    -0.00   0.00  -0.00     0.00  -0.00   0.00     0.00  -0.00   0.00
   9   6     0.00   0.00   0.00     0.00   0.00   0.00    -0.00  -0.00  -0.00
  10   1     0.00  -0.00   0.00    -0.00   0.00  -0.00     0.00  -0.00   0.01
  11   1    -0.00  -0.00  -0.00    -0.00  -0.00   0.00    -0.00  -0.00   0.00
  12   1    -0.00  -0.00  -0.00    -0.00  -0.00  -0.00     0.00   0.00   0.00
  13   1     0.00   0.00   0.00     0.00  -0.00   0.00     0.00  -0.00   0.00
  14   8    -0.00  -0.00  -0.00    -0.00   0.00   0.00     0.00  -0.00  -0.00
  15   7     0.00   0.00   0.00    -0.00   0.00  -0.00     0.00   0.00  -0.00
  16   6     0.00   0.00  -0.00     0.00   0.00  -0.00     0.00   0.00   0.00
  17   6    -0.00   0.00   0.00    -0.00   0.00  -0.00     0.00  -0.00   0.00
  18   6     0.00  -0.00  -0.00     0.00  -0.00  -0.00     0.00  -0.00   0.00
  19   6     0.15   0.02   0.01    -0.00   0.00  -0.01     0.00   0.00   0.00
  20   6     0.00   0.01  -0.00     0.00   0.00  -0.00    -0.00   0.00   0.00
  21   6    -0.00  -0.00  -0.00     0.00   0.00   0.00    -0.00  -0.00  -0.00
  22   6    -0.01   0.00  -0.00     0.00  -0.00   0.00    -0.00  -0.00   0.00
  23   6    -0.15   0.08   0.05    -0.00   0.00  -0.00     0.00  -0.00  -0.00
  24   6    -0.00   0.00  -0.00    -0.00   0.00  -0.00    -0.00  -0.00   0.00
  25   1     0.00  -0.00   0.00     0.00  -0.00  -0.00    -0.00   0.00  -0.00
  26   1    -0.01   0.01   0.01    -0.00   0.00   0.00     0.00  -0.00  -0.00
  27   1    -0.05  -0.04   0.08    -0.02  -0.01   0.02     0.00   0.00  -0.00
  28   1    -0.50  -0.12  -0.21     0.02   0.00   0.01    -0.01  -0.00  -0.00
  29   1     0.01   0.09   0.11     0.00  -0.00  -0.00     0.00   0.00   0.00
  30   1     0.00  -0.00   0.00    -0.00   0.00  -0.00     0.00  -0.00   0.00
  31   1    -0.02  -0.02   0.02    -0.00  -0.00   0.00    -0.00  -0.00   0.00
  32   1     0.00  -0.00  -0.01    -0.00   0.00   0.00     0.00  -0.00  -0.00
  33   1     0.01   0.01   0.01    -0.00  -0.00  -0.00     0.00   0.00   0.00
  34   1     0.00  -0.00   0.00     0.00  -0.00   0.00    -0.00   0.00  -0.00
  35   1     0.01   0.01  -0.01     0.00   0.00  -0.00     0.00   0.00  -0.00
  36   1     0.01  -0.01   0.01    -0.00   0.00  -0.00     0.00  -0.00   0.00
  37   1    -0.00  -0.00  -0.00    -0.00  -0.00  -0.00    -0.00  -0.00  -0.00
  38   1     0.54  -0.34  -0.37     0.01  -0.00  -0.01    -0.00   0.00   0.00
  39   1    -0.08  -0.06   0.06    -0.01  -0.01   0.00     0.00   0.00  -0.00
  40   1     0.06   0.13   0.15     0.00   0.00   0.00    -0.00  -0.00  -0.00
  41   1     0.01  -0.01   0.01     0.00  -0.00   0.00    -0.00   0.00  -0.00
  42   1    -0.00   0.00  -0.00    -0.00  -0.00   0.00     0.00   0.00  -0.00
  43   8     0.00  -0.00  -0.00    -0.00   0.00   0.00     0.00  -0.00  -0.00
  44   6     0.00   0.00   0.00     0.00  -0.01  -0.01    -0.00   0.00   0.00
  45   8     0.00   0.00  -0.00    -0.00   0.00   0.00    -0.00  -0.00  -0.00
  46   6     0.00   0.00   0.00     0.11  -0.23  -0.11     0.00  -0.00   0.00
  47   1     0.00   0.00  -0.00    -0.12  -0.04   0.11     0.00   0.00  -0.00
  48   1    -0.00  -0.00  -0.00     0.05  -0.00   0.00    -0.00  -0.00  -0.00
  49   1     0.00  -0.00  -0.00    -0.31   0.85   0.28    -0.00   0.00   0.00
  50   8    -0.00  -0.00  -0.00    -0.00   0.00   0.00    -0.00   0.00  -0.00
  51   8     0.00  -0.00  -0.00     0.00   0.00   0.00    -0.00   0.00  -0.00
  52   6     0.00  -0.00   0.00    -0.00   0.00  -0.00     0.00  -0.00   0.01
  53   8    -0.00  -0.00  -0.00     0.00  -0.00   0.00     0.00   0.00  -0.00
  54   6    -0.00   0.00  -0.00    -0.00  -0.00  -0.00     0.11  -0.13   0.21
  55   1     0.00  -0.00   0.00     0.00  -0.00   0.00    -0.46   0.49  -0.67
  56   1    -0.00  -0.00  -0.00     0.00   0.00   0.00    -0.02  -0.09  -0.06
  57   1     0.00   0.00  -0.00    -0.00   0.00  -0.00     0.07   0.06  -0.01
                    160                    161                    162
                        a                      a                      a 
 Frequencies --  3027.3245              3030.0406              3040.8613
 Red. masses --     1.6350                 1.7688                 1.8193
 Frc consts  --     0.0000                 0.0000                 0.0000
 IR Inten    --    47.5587                 6.7058                28.3542
 Raman Activ --     0.0000                 0.0000                 0.0000
 Depolar     --     0.0000                 0.0000                 0.0000
 Atom AN      X      Y      Z        X      Y      Z        X      Y      Z
   1  53     0.00  -0.00   0.00    -0.00  -0.00  -0.00    -0.00   0.00  -0.00
   2   6    -0.00  -0.00  -0.00    -0.00  -0.00  -0.00    -0.00  -0.00   0.00
   3   6     0.00   0.00  -0.00    -0.01  -0.01   0.00    -0.02  -0.04   0.01
   4   6    -0.00  -0.00  -0.00    -0.00  -0.00  -0.00     0.00  -0.00   0.01
   5   6    -0.00   0.00  -0.00    -0.01   0.04  -0.09    -0.02   0.07  -0.18
   6   1    -0.00  -0.00   0.00     0.02   0.05  -0.01     0.08   0.16  -0.04
   7   6     0.00   0.00  -0.00    -0.04  -0.08   0.03     0.09   0.15  -0.05
   8   1    -0.00  -0.00   0.00     0.00  -0.01   0.02    -0.01   0.02  -0.06
   9   6     0.00   0.00   0.00     0.13   0.11   0.15    -0.01  -0.01  -0.01
  10   1     0.00  -0.00   0.00     0.04  -0.14   0.34     0.07  -0.25   0.64
  11   1    -0.00  -0.00   0.00     0.17   0.30  -0.10    -0.30  -0.54   0.17
  12   1    -0.01  -0.00  -0.01    -0.46  -0.39  -0.54     0.02   0.02   0.03
  13   1    -0.00   0.00   0.00    -0.00   0.00  -0.00    -0.00   0.00  -0.00
  14   8     0.00  -0.00  -0.00     0.00  -0.00  -0.00     0.00  -0.00   0.00
  15   7    -0.00  -0.00   0.00     0.00  -0.00   0.00     0.00  -0.00   0.00
  16   6     0.01   0.00   0.00    -0.00  -0.00  -0.00     0.00   0.00  -0.00
  17   6     0.00  -0.00  -0.00    -0.00   0.00  -0.00    -0.00   0.00  -0.00
  18   6     0.00  -0.00  -0.00    -0.00   0.00  -0.00    -0.00   0.00  -0.00
  19   6     0.19   0.02   0.05    -0.00  -0.00  -0.00    -0.00  -0.00  -0.00
  20   6     0.00   0.00  -0.00     0.00  -0.00  -0.00     0.00  -0.00  -0.00
  21   6     0.00  -0.00   0.00    -0.00   0.00  -0.00    -0.00   0.00  -0.00
  22   6     0.00  -0.00  -0.00    -0.00   0.00  -0.00     0.00   0.00  -0.00
  23   6     0.11  -0.07  -0.05    -0.00   0.00   0.00    -0.00  -0.00  -0.00
  24   6     0.01  -0.01   0.00    -0.00   0.00  -0.00    -0.00   0.00  -0.00
  25   1    -0.01   0.01  -0.01     0.00  -0.00   0.00     0.00  -0.00   0.00
  26   1    -0.00   0.01   0.01     0.00  -0.00  -0.00    -0.00   0.00   0.00
  27   1     0.01  -0.00   0.02    -0.00  -0.00   0.00     0.00   0.00  -0.00
  28   1    -0.69  -0.16  -0.28     0.01   0.00   0.00     0.00   0.00   0.00
  29   1     0.02   0.07   0.08    -0.00  -0.00  -0.00    -0.00   0.00   0.00
  30   1    -0.00   0.00  -0.00    -0.00   0.00  -0.00    -0.00   0.00  -0.00
  31   1    -0.01  -0.01   0.01    -0.00  -0.00   0.00    -0.00  -0.00   0.00
  32   1     0.00  -0.00  -0.01    -0.00   0.00   0.00    -0.00   0.00   0.00
  33   1    -0.00  -0.00  -0.00     0.00   0.00   0.00     0.00  -0.00  -0.00
  34   1    -0.01   0.01  -0.00     0.00  -0.00   0.00     0.00  -0.00   0.00
  35   1    -0.01  -0.01   0.01    -0.00   0.00  -0.00    -0.00  -0.00   0.00
  36   1    -0.01   0.01  -0.01     0.00  -0.00   0.00     0.00  -0.00   0.00
  37   1     0.00   0.00   0.00     0.00   0.00   0.00    -0.00  -0.00  -0.00
  38   1    -0.41   0.27   0.29     0.00  -0.00  -0.00     0.00  -0.00  -0.00
  39   1     0.04   0.03  -0.03    -0.00  -0.00   0.00     0.00   0.00  -0.00
  40   1    -0.01  -0.05  -0.06     0.00   0.00   0.00     0.00   0.00   0.00
  41   1    -0.04   0.05  -0.03     0.00  -0.00   0.00     0.00  -0.00   0.00
  42   1    -0.00  -0.01   0.01     0.00   0.00  -0.00    -0.00  -0.00   0.00
  43   8    -0.00   0.00  -0.00     0.00   0.00  -0.00     0.00  -0.00   0.00
  44   6     0.00  -0.00   0.00    -0.00  -0.00  -0.00     0.00   0.00  -0.00
  45   8    -0.00   0.00  -0.00     0.00   0.00   0.00    -0.00  -0.00   0.00
  46   6     0.00  -0.00  -0.00    -0.00  -0.00   0.00     0.00   0.00  -0.00
  47   1    -0.01  -0.00   0.01     0.00   0.00  -0.00    -0.00  -0.00   0.00
  48   1     0.00  -0.00  -0.00     0.00   0.00   0.00    -0.00  -0.00  -0.00
  49   1    -0.01   0.02   0.01    -0.00   0.00   0.00     0.00  -0.00  -0.00
  50   8    -0.00   0.00  -0.00    -0.00  -0.00   0.00    -0.00  -0.00  -0.00
  51   8     0.00  -0.00   0.00    -0.00  -0.00   0.00     0.00  -0.00   0.00
  52   6    -0.00   0.00  -0.00     0.00   0.00  -0.00    -0.00   0.00  -0.00
  53   8     0.00  -0.00   0.00     0.00  -0.00   0.00     0.00  -0.00   0.00
  54   6    -0.00   0.00  -0.00    -0.00   0.00  -0.00    -0.00   0.00  -0.00
  55   1     0.00  -0.00   0.00     0.00  -0.00   0.00     0.00  -0.00   0.00
  56   1     0.00   0.00   0.00     0.00   0.00   0.00     0.00   0.00   0.00
  57   1    -0.00  -0.00   0.00    -0.00  -0.00   0.00    -0.00  -0.00   0.00
                    163                    164                    165
                        a                      a                      a 
 Frequencies --  3046.6174              3057.1507              3086.4996
 Red. masses --     1.8835                 1.8806                 1.8571
 Frc consts  --     0.0000                 0.0000                 0.0000
 IR Inten    --    34.8715                 6.5665                 2.2916
 Raman Activ --     0.0000                 0.0000                 0.0000
 Depolar     --     0.0000                 0.0000                 0.0000
 Atom AN      X      Y      Z        X      Y      Z        X      Y      Z
   1  53     0.00   0.00  -0.00    -0.00   0.00   0.00     0.00   0.00   0.00
   2   6     0.00  -0.00   0.00    -0.00  -0.00  -0.00    -0.00  -0.00  -0.00
   3   6     0.02   0.04  -0.01    -0.12  -0.23   0.06     0.00   0.00   0.00
   4   6     0.00  -0.01   0.01     0.00   0.00  -0.00    -0.03   0.10  -0.26
   5   6     0.01  -0.06   0.13     0.01  -0.03   0.08    -0.00  -0.00  -0.00
   6   1    -0.08  -0.16   0.04     0.41   0.80  -0.21    -0.00  -0.00   0.00
   7   6     0.08   0.15  -0.05     0.00   0.00  -0.00     0.02   0.03  -0.01
   8   1    -0.01   0.02  -0.06     0.00  -0.00   0.00     0.11  -0.33   0.89
   9   6     0.09   0.07   0.10     0.01   0.01   0.01     0.00   0.00   0.00
  10   1    -0.05   0.18  -0.46    -0.03   0.09  -0.24     0.00  -0.00   0.00
  11   1    -0.29  -0.52   0.17    -0.01  -0.01   0.00    -0.04  -0.08   0.02
  12   1    -0.29  -0.24  -0.34    -0.04  -0.03  -0.04    -0.01  -0.00  -0.01
  13   1    -0.00   0.00  -0.00    -0.00   0.00  -0.00    -0.00   0.00  -0.00
  14   8     0.00  -0.00   0.00     0.00  -0.00   0.00    -0.00   0.00  -0.00
  15   7     0.00  -0.00   0.00     0.00  -0.00   0.00     0.00  -0.00   0.00
  16   6    -0.00   0.00   0.00     0.00   0.00   0.00    -0.00   0.00  -0.00
  17   6    -0.00  -0.00  -0.00    -0.00   0.00  -0.00    -0.00  -0.00  -0.00
  18   6    -0.00   0.00   0.00    -0.00   0.00   0.00    -0.00   0.00   0.00
  19   6    -0.00  -0.00  -0.00     0.00   0.00   0.00    -0.00  -0.00   0.00
  20   6    -0.00   0.00   0.00     0.00   0.00  -0.00    -0.00  -0.00   0.00
  21   6    -0.00  -0.00  -0.00    -0.00   0.00  -0.00    -0.00   0.00  -0.00
  22   6    -0.00  -0.00   0.00    -0.00   0.00  -0.00     0.00   0.00  -0.00
  23   6    -0.00   0.00   0.00    -0.00   0.00   0.00    -0.00   0.00   0.00
  24   6    -0.00  -0.00   0.00    -0.00   0.00  -0.00    -0.00  -0.00   0.00
  25   1     0.00  -0.00   0.00    -0.00   0.00  -0.00     0.00  -0.00   0.00
  26   1     0.00  -0.00  -0.00     0.00  -0.00  -0.00     0.00  -0.00  -0.00
  27   1     0.00   0.00  -0.00    -0.00  -0.00   0.00     0.00   0.00  -0.00
  28   1     0.00   0.00   0.00    -0.00  -0.00  -0.00    -0.00  -0.00  -0.00
  29   1    -0.00  -0.00  -0.00     0.00  -0.00  -0.00     0.00  -0.00  -0.00
  30   1     0.00  -0.00   0.00    -0.00   0.01  -0.00     0.00  -0.00   0.00
  31   1     0.00   0.00  -0.00    -0.01  -0.01   0.01     0.00   0.00  -0.00
  32   1     0.00  -0.00  -0.00     0.00   0.00  -0.00    -0.00   0.00   0.00
  33   1     0.00   0.00   0.00     0.00   0.00   0.00    -0.00  -0.00   0.00
  34   1    -0.00  -0.00   0.00     0.00  -0.00   0.00     0.00  -0.00   0.00
  35   1     0.00   0.00  -0.00    -0.00  -0.00   0.00    -0.00  -0.00   0.00
  36   1     0.00  -0.00   0.00     0.00  -0.00   0.00    -0.00   0.00  -0.00
  37   1     0.00   0.00   0.00     0.00   0.00  -0.00     0.00  -0.00   0.00
  38   1     0.00  -0.00  -0.00     0.00  -0.00  -0.00     0.00  -0.00  -0.00
  39   1    -0.00   0.00  -0.00    -0.00  -0.00   0.00    -0.00   0.00  -0.00
  40   1     0.00   0.00   0.00    -0.00  -0.00  -0.00     0.00   0.00   0.00
  41   1     0.00  -0.00   0.00     0.00  -0.00   0.00     0.00  -0.00   0.00
  42   1     0.00   0.00  -0.00     0.00   0.00  -0.00     0.00   0.00  -0.00
  43   8     0.00  -0.00   0.00    -0.00   0.00  -0.00    -0.00  -0.00  -0.00
  44   6    -0.00   0.00  -0.00    -0.00   0.00   0.00    -0.00   0.00   0.00
  45   8     0.00  -0.00  -0.00     0.00  -0.00  -0.00    -0.00  -0.00  -0.00
  46   6    -0.00   0.00   0.00    -0.00   0.00   0.00    -0.00   0.00   0.00
  47   1    -0.00   0.00   0.00     0.00   0.00  -0.00     0.00   0.00  -0.00
  48   1    -0.00  -0.00  -0.00    -0.00  -0.00  -0.00     0.00   0.00   0.00
  49   1     0.00  -0.00  -0.00     0.00  -0.00  -0.00     0.00  -0.00  -0.00
  50   8     0.00   0.00   0.00    -0.00  -0.00  -0.00     0.00  -0.00   0.00
  51   8    -0.00   0.00  -0.00     0.00  -0.00  -0.00    -0.00   0.00   0.00
  52   6     0.00  -0.00   0.00    -0.00   0.00   0.00     0.00   0.00  -0.00
  53   8    -0.00   0.00  -0.00     0.00  -0.00  -0.00    -0.00  -0.00  -0.00
  54   6     0.00  -0.00   0.00     0.00  -0.00   0.00    -0.00   0.00  -0.00
  55   1    -0.00   0.00  -0.00    -0.00   0.00  -0.00     0.00  -0.00   0.00
  56   1    -0.00  -0.00  -0.00    -0.00  -0.00  -0.00     0.00   0.00   0.00
  57   1     0.00   0.00  -0.00    -0.00  -0.00   0.00    -0.00  -0.00   0.00
