57
 xtb: 6.7.1 (edcfbbe)
I            0.69011688566949       -0.44080464010653       -0.80067864881842
C            1.84111849230856        0.67863679164949        0.63427343629667
C            1.96560857363335        0.12722677466098        1.89518429940612
C            2.48443809146027        1.83061293616285        0.21333871840963
C            2.75545758265830        0.81808932324997        2.81276036737944
H            1.48943631390740       -0.81271470675646        2.13805542174104
C            3.28014438702028        2.48905288072979        1.14776629632204
H            2.36847300738526        2.20173637404410       -0.79534746218526
C            3.40463404078276        1.99156067826727        2.44225829349612
H            2.87020735959037        0.41794435138235        3.81387342172665
H            3.79359996099071        3.39898716707690        0.85686292205277
H            4.02152749607291        2.51658255519291        3.16374118657076
H           -0.94041572899546       -1.22451335385902        0.65136040721592
O           -1.23972284329835        0.33251595623191       -0.64893442616015
N           -2.05512478075545       -0.37016915658697        0.27070382758729
C           -2.48593181427891        0.56568713202274        1.35490917992774
C           -3.07764757017921       -1.15681799344743       -0.47979266787383
C           -3.36293127158733       -0.24165631111000        2.32715431677390
C           -3.19663067309907        1.81910039451254        0.82185945261218
C           -1.22081531193526        1.03591072155134        2.08432755944689
C           -3.92724325406203       -1.90802593175002        0.56015840775217
C           -2.33710314240583       -2.18505688349767       -1.35448591273854
C           -3.94822967759895       -0.29502105001422       -1.41176001543245
C           -4.49974988893997       -0.98590928594848        1.63329857929950
H           -2.72418868529879       -0.97218572575191        2.84406092777344
H           -3.74598693259074        0.44206910585400        3.09267476019929
H           -2.57705699062268        2.27345758979144        0.04193935553714
H           -4.19399971207659        1.61628059059252        0.43059964464144
H           -3.29702767223404        2.53688068769065        1.63547345498918
H           -0.63318007870265        0.18331343758952        2.43349308952061
H           -0.61587910071076        1.66723780675189        1.42547514037983
H           -1.50806654214099        1.62728146915029        2.95836392423810
H           -4.72321913294815       -2.44450457066865        0.03175188622979
H           -3.29547379678739       -2.66754006786732        1.04247577583991
H           -1.80602718113915       -1.68505996011780       -2.17035568361138
H           -1.63544282171687       -2.78415006707571       -0.76888243375690
H           -3.06811107611758       -2.86064016102395       -1.80666109570024
H           -4.75453245215174        0.21653966774158       -0.88598910997513
H           -3.32107579261087        0.45170662306342       -1.90799417161637
H           -4.39943973329860       -0.93081441586021       -2.17233045555906
H           -5.20783806850096       -0.27519418274171        1.19135715332928
H           -5.06464345917406       -1.57212486771097        2.36357583572053
O            0.67748714003175        1.39869009902119       -2.04630775961914
C            0.03058369430737        2.51538514013381       -1.69701339679804
O           -0.12812830455390        2.90143269350075       -0.55840505199892
C           -0.49489947621825        3.27840400267091       -2.89394515188545
H            0.27910137098806        3.38307437908861       -3.65553573968666
H           -1.31770284530912        2.71130127079410       -3.33811002607722
H           -0.85730607663267        4.25824043552901       -2.57671583227924
O           -0.03967741105479       -1.61434539267430        0.62587086151999
O            2.93386802651537       -2.36099966163334        0.97468316475972
C            3.24856321897507       -2.24118924575047       -0.19268989656540
O            2.54447450821646       -1.57660961715427       -1.09148005061131
C            4.49437359604455       -2.85751481039184       -0.78688989674816
H            5.02600793096653       -3.41795753394991       -0.02080693589155
H            4.21758879888641       -3.51376343628797       -1.61562924187477
H            5.13079540830984       -2.06839103578928       -1.19216272411582
