57
pr1.tempo_ts3 mechanism_001 iter1 mode 0 freq=-1129.9292
I        0.68947000     -0.46357000     -0.78587000     0.000000    0.000000    0.000000
C        1.83522000      0.68856000      0.62486000     0.000000    0.000000    0.000000
C        1.95739000      0.17006000      1.90050000     0.000000    0.000000    0.000000
C        2.48798000      1.82278000      0.17701000     0.000000    0.000000    0.000000
C        2.74773000      0.88135000      2.80151000     0.000000    0.000000    0.000000
H        1.48754000     -0.76708000      2.16799000     0.000000    0.000000    0.000000
C        3.28591000      2.50248000      1.09357000     0.000000    0.000000    0.000000
H        2.38270000      2.16853000     -0.84147000     0.000000    0.000000    0.000000
C        3.40373000      2.04114000      2.40175000     0.000000    0.000000    0.000000
H        2.86001000      0.50623000      3.81264000     0.000000    0.000000    0.000000
H        3.80721000      3.39901000      0.77693000     0.000000    0.000000    0.000000
H        4.02234000      2.58224000      3.11014000     0.000000    0.000000    0.000000
H       -1.21043217     -0.85527292      1.02159176    -0.890000    0.140000   -0.320000
O       -1.24256000      0.30526000     -0.56955000     0.000000    0.000000    0.000000
N       -2.20401655     -0.43949739      0.31205520     0.110000   -0.000000    0.020000
C       -2.51515000      0.56330000      1.37895000     0.000000    0.000000    0.000000
C       -3.08956000     -1.13972000     -0.48873000     0.000000    0.000000    0.000000
C       -3.44142000     -0.22573000      2.31354000     0.000000    0.000000    0.000000
C       -3.17876000      1.82977000      0.82385000     0.000000    0.000000    0.000000
C       -1.26171000      0.99418000      2.14113000     0.000000    0.000000    0.000000
C       -3.99267000     -1.86724000      0.51737000     0.000000    0.000000    0.000000
C       -2.34242000     -2.17926000     -1.33335000     0.000000    0.000000    0.000000
C       -3.89855000     -0.24899000     -1.44384000     0.000000    0.000000    0.000000
C       -4.57385000     -0.93596000      1.57778000     0.000000    0.000000    0.000000
H       -2.83924000     -0.97375000      2.84674000     0.000000    0.000000    0.000000
H       -3.83263000      0.46716000      3.06607000     0.000000    0.000000    0.000000
H       -2.53940000      2.27156000      0.05507000     0.000000    0.000000    0.000000
H       -4.17597000      1.65650000      0.41914000     0.000000    0.000000    0.000000
H       -3.27500000      2.55523000      1.63698000     0.000000    0.000000    0.000000
H       -0.70269000      0.12332000      2.49670000     0.000000    0.000000    0.000000
H       -0.62046000      1.61290000      1.50629000     0.000000    0.000000    0.000000
H       -1.55509000      1.58546000      3.01308000     0.000000    0.000000    0.000000
H       -4.78647000     -2.37269000     -0.04356000     0.000000    0.000000    0.000000
H       -3.40079000     -2.64810000      1.01343000     0.000000    0.000000    0.000000
H       -1.77703000     -1.69812000     -2.13829000     0.000000    0.000000    0.000000
H       -1.66579000     -2.78652000     -0.72582000     0.000000    0.000000    0.000000
H       -3.06882000     -2.84697000     -1.80392000     0.000000    0.000000    0.000000
H       -4.70958000      0.28419000     -0.94791000     0.000000    0.000000    0.000000
H       -3.24051000      0.47891000     -1.92449000     0.000000    0.000000    0.000000
H       -4.34589000     -0.87463000     -2.22164000     0.000000    0.000000    0.000000
H       -5.24864000     -0.20494000      1.11852000     0.000000    0.000000    0.000000
H       -5.17769000     -1.51131000      2.28590000     0.000000    0.000000    0.000000
O        0.65364000      1.33279000     -2.05450000     0.000000    0.000000    0.000000
C        0.03330000      2.45514000     -1.72625000     0.000000    0.000000    0.000000
O       -0.12164000      2.86114000     -0.58981000     0.000000    0.000000    0.000000
C       -0.47494000      3.20827000     -2.93860000     0.000000    0.000000    0.000000
H        0.31379000      3.29278000     -3.68822000     0.000000    0.000000    0.000000
H       -1.29326000      2.63729000     -3.38567000     0.000000    0.000000    0.000000
H       -0.83178000      4.19305000     -2.64048000     0.000000    0.000000    0.000000
O       -0.00044268     -1.08236109      1.39243712     0.180000    0.010000   -0.060000
O        3.01932000     -2.27158000      1.03226000     0.000000    0.000000    0.000000
C        3.27751000     -2.20788000     -0.15141000     0.000000    0.000000    0.000000
O        2.53825000     -1.59979000     -1.06577000     0.000000    0.000000    0.000000
C        4.51462000     -2.84268000     -0.75809000     0.000000    0.000000    0.000000
H        5.08598000     -3.34769000      0.01949000     0.000000    0.000000    0.000000
H        4.21851000     -3.55290000     -1.53289000     0.000000    0.000000    0.000000
H        5.12324000     -2.07109000     -1.23482000     0.000000    0.000000    0.000000
