57
pr1.tempo_ts3 mechanism_001 iter1 native target
I  0.690847  -0.465928  -0.220351
C  1.878735  0.963572  0.734054
C  1.776083  1.053734  2.101918
C  2.765667  1.732222  0.012181
C  2.570854  1.967407  2.773916
H  1.098167  0.402550  2.626906
C  3.558184  2.640383  0.690601
H  2.837767  1.609401  -1.055868
C  3.456611  2.763305  2.068150
H  2.497923  2.053733  3.847949
H  4.257795  3.253496  0.141881
H  4.075212  3.478108  2.590978
H  -1.210432  -0.855273  1.021592
O  -1.326708  0.149600  -0.571913
N  -2.204017  -0.439497  0.312055
C  -2.947700  0.562433  1.112532
C  -2.886181  -1.597956  -0.310137
C  -3.856181  -0.180931  2.100090
C  -3.722005  1.531464  0.216048
C  -1.909299  1.364877  1.903170
C  -3.777841  -2.261304  0.745211
C  -1.797389  -2.585508  -0.746798
C  -3.672961  -1.185094  -1.558294
C  -4.697402  -1.265274  1.440391
H  -3.231475  -0.646674  2.865819
H  -4.498386  0.551140  2.591355
H  -3.065469  1.880995  -0.576568
H  -4.602497  1.078316  -0.226292
H  -4.040317  2.390553  0.800640
H  -1.347913  0.715958  2.570876
H  -1.222297  1.867900  1.227100
H  -2.409844  2.119773  2.504234
H  -4.364007  -3.042924  0.260645
H  -3.139020  -2.733767  1.494425
H  -1.214796  -2.170596  -1.566252
H  -1.115873  -2.816151  0.069009
H  -2.261742  -3.509912  -1.080903
H  -4.623920  -0.721642  -1.318709
H  -3.076561  -0.488899  -2.141935
H  -3.871274  -2.063123  -2.167066
H  -5.399196  -0.827852  0.729987
H  -5.286040  -1.781361  2.200683
O  0.637078  0.845283  -1.916633
C  0.233198  2.021667  -1.595220
O  0.001380  2.374712  -0.453279
C  0.070331  2.961761  -2.774599
H  0.922662  2.862109  -3.440389
H  -0.826023  2.677391  -3.321295
H  -0.026337  3.984541  -2.422621
O  -0.000443  -1.082361  1.392437
O  2.478217  -1.779211  0.561696
C  3.215728  -1.552974  -0.433543
O  2.878312  -0.727403  -1.300751
C  4.514771  -2.308047  -0.565277
H  4.888238  -2.574915  0.418051
H  4.318874  -3.218690  -1.127231
H  5.237372  -1.708438  -1.109705
