57
5 from ja5c21609_si_001.pdf | charge=0 multiplicity=1
I       0.68947     -0.46357     -0.78587
C       1.83522      0.68856      0.62486
C       1.95739      0.17006      1.90050
C       2.48798      1.82278      0.17701
C       2.74773      0.88135      2.80151
H       1.48754     -0.76708      2.16799
C       3.28591      2.50248      1.09357
H       2.38270      2.16853     -0.84147
C       3.40373      2.04114      2.40175
H       2.86001      0.50623      3.81264
H       3.80721      3.39901      0.77693
H       4.02234      2.58224      3.11014
H      -0.82561     -1.41392      0.79471
O      -1.24256      0.30526     -0.56955
N      -2.06523     -0.38681      0.30754
C      -2.51515      0.56330      1.37895
C      -3.08956     -1.13972     -0.48873
C      -3.44142     -0.22573      2.31354
C      -3.17876      1.82977      0.82385
C      -1.26171      0.99418      2.14113
C      -3.99267     -1.86724      0.51737
C      -2.34242     -2.17926     -1.33335
C      -3.89855     -0.24899     -1.44384
C      -4.57385     -0.93596      1.57778
H      -2.83924     -0.97375      2.84674
H      -3.83263      0.46716      3.06607
H      -2.53940      2.27156      0.05507
H      -4.17597      1.65650      0.41914
H      -3.27500      2.55523      1.63698
H      -0.70269      0.12332      2.49670
H      -0.62046      1.61290      1.50629
H      -1.55509      1.58546      3.01308
H      -4.78647     -2.37269     -0.04356
H      -3.40079     -2.64810      1.01343
H      -1.77703     -1.69812     -2.13829
H      -1.66579     -2.78652     -0.72582
H      -3.06882     -2.84697     -1.80392
H      -4.70958      0.28419     -0.94791
H      -3.24051      0.47891     -1.92449
H      -4.34589     -0.87463     -2.22164
H      -5.24864     -0.20494      1.11852
H      -5.17769     -1.51131      2.28590
O       0.65364      1.33279     -2.05450
C       0.03330      2.45514     -1.72625
O      -0.12164      2.86114     -0.58981
C      -0.47494      3.20827     -2.93860
H       0.31379      3.29278     -3.68822
H      -1.29326      2.63729     -3.38567
H      -0.83178      4.19305     -2.64048
O       0.13790     -1.69344      0.62468
O       3.01932     -2.27158      1.03226
C       3.27751     -2.20788     -0.15141
O       2.53825     -1.59979     -1.06577
C       4.51462     -2.84268     -0.75809
H       5.08598     -3.34769      0.01949
H       4.21851     -3.55290     -1.53289
H       5.12324     -2.07109     -1.23482
